Global Parameters
  LREAL   = auto
  SYSTEM  = NVE
  NPAR     = 8
  PREC    = NORMAL
  ISPIN   = 1
  ISTART  = 0
# ICHARG  = 1
EDIFFG = -1E-02
AMIX = 0.2
Electronic relaxation
  NPAR    = 8
  ISMEAR  = 0
  SIGMA   = 0.1
  ALGO    = F
  NELMIN  = 6
  NELM    = 120
  EDIFF   = 1E-6

Molecular Dynamics
  ISYM    = 0     # turn off symmetry for MD
  IBRION  = 0     # turn on MD
  NSW     = 5000   # No. of ionic steps
  POTIM   = 1     # time step 1.0 fs
  SMASS   = -3    # velocity rescaling
  NBLOCK  = 1     # velocity rescaled
                  # every NBLOCK step
                  
Writing Flag
  NWRITE  = 1     # make OUTCAR small
  LWAVE   = .FALSE.
  LCHARG  = .FALSE. 
