W1 Se2                                  
   1.00000000000000     
     9.9768362044999996    0.0000000000000000    0.0000000000000000
    -4.9884181022999998    8.6401936025000001    0.0000000000000000
     0.0000000000000000    0.0000000000000000   12.0000000000000000
   W    Se
     9    18
Direct
  0.1111109929999969  0.2222223280000009  0.2148469979999987
  0.1111109929999969  0.5555556420000016  0.2148469979999987
  0.1111109929999969  0.8888890149999966  0.2148469979999987
  0.4444443289999995  0.2222223280000009  0.2148469979999987
  0.4444443289999995  0.5555556420000016  0.2148469979999987
  0.4444443289999995  0.8888890149999966  0.2148469979999987
  0.7777776719999991  0.2222223280000009  0.2148469979999987
  0.7777776719999991  0.5555556420000016  0.2148469979999987
  0.7777776719999991  0.8888890149999966  0.2148469979999987
  0.2222223280000009  0.1111109929999969  0.3547832907013810
  0.2222223280000009  0.4444443289999995  0.3547832907013810
  0.2222223280000009  0.7777776719999991  0.3547832907013810
  0.5555556420000016  0.1111109929999969  0.3547832907013810
  0.5555556420000016  0.4444443289999995  0.3547832907013810
  0.5555556420000016  0.7777776719999991  0.3547832907013810
  0.8888890149999966  0.1111109929999969  0.3547832907013810
  0.8888890149999966  0.4444443289999995  0.3547832907013810
  0.8888890149999966  0.7777776719999991  0.3547832907013810
  0.2222223280000009  0.1111109929999969  0.0749117192986151
  0.2222223280000009  0.4444443289999995  0.0749117192986151
  0.2222223280000009  0.7777776719999991  0.0749117192986151
  0.5555556420000016  0.1111109929999969  0.0749117192986151
  0.5555556420000016  0.4444443289999995  0.0749117192986151
  0.5555556420000016  0.7777776719999991  0.0749117192986151
  0.8888890149999966  0.1111109929999969  0.0749117192986151
  0.8888890149999966  0.4444443289999995  0.0749117192986151
  0.8888890149999966  0.7777776719999991  0.0749117192986151