  PAW_PBE W_sv 04Sep2015                 
   14.0000000000000     
 parameters from PSCTR are:
   VRHFIN =W : 5p6s5d
   LEXCH  = PE
   EATOM  =  1865.5791 eV,  137.1162 Ry

   TITEL  = PAW_PBE W_sv 04Sep2015
   LULTRA =        F    use ultrasoft PP ?
   IUNSCR =        1    unscreen: 0-lin 1-nonlin 2-no
   RPACOR =    2.330    partial core radius
   POMASS =  183.850; ZVAL   =   14.000    mass and valenz
   RCORE  =    2.500    outmost cutoff radius
   RWIGS  =    2.750; RWIGS  =    1.455    wigner-seitz radius (au A)
   ENMAX  =  223.057; ENMIN  =  167.293 eV
   ICORE  =        3    local potential
   LCOR   =        T    correct aug charges
   LPAW   =        T    paw PP
   EAUG   =  373.438
   DEXC   =    0.000
   RMAX   =    2.565    core radius for proj-oper
   RAUG   =    1.300    factor for augmentation sphere
   RDEP   =    2.539    radius for radial grids
   RDEPT  =    2.126    core radius for aug-charge
 
   Atomic configuration
   15 entries
     n  l   j            E        occ.
     1  0  0.50    -69465.5834   2.0000
     2  0  0.50    -11986.2640   2.0000
     2  1  1.50    -10479.8613   6.0000
     3  0  0.50     -2759.0756   2.0000
     3  1  1.50     -2313.1855   6.0000
     3  2  2.50     -1801.1183  10.0000
     4  0  0.50      -567.6789   2.0000
     4  1  1.50      -421.4692   6.0000
     4  2  2.50      -236.3471  10.0000
     4  3  3.50       -31.2665  14.0000
     5  0  0.50       -77.1084   2.0000
     6  0  0.50        -5.1438   1.0000
     5  1  1.50       -41.3856   6.0000
     5  2  2.50        -3.3185   5.0000
     5  3  2.50        -1.3606   0.0000
   Description
     l       E           TYP  RCUT    TYP  RCUT
     0    -77.1084470     23  2.100
     0     -5.1437956     23  2.300
     1    -41.3855615     23  2.500
     1     -2.7211652     23  2.500
     2     -3.3185025     23  2.500
     2     -1.5965151     23  2.500
     3     -1.3605826     23  2.500
   Error from kinetic energy argument (eV)
   NDATA  =      100
   STEP   =   20.000   1.050
  230.      225.      222.      216.      213.      206.      199.      196.
  189.      181.      178.      170.      163.      155.      147.      140.
  132.      125.      117.      106.      99.2      92.4      82.6      76.4
  70.4      62.0      54.1      49.3      42.6      36.5      31.1      26.2
  22.0      18.3      15.0      12.3      9.23      7.36      5.37      4.18
  2.94      2.03      1.38     0.914     0.598     0.390     0.256     0.160
 0.117     0.881E-01 0.730E-01 0.652E-01 0.570E-01 0.490E-01 0.392E-01 0.315E-01
 0.245E-01 0.178E-01 0.130E-01 0.985E-02 0.794E-02 0.681E-02 0.606E-02 0.534E-02
 0.469E-02 0.390E-02 0.311E-02 0.243E-02 0.183E-02 0.148E-02 0.123E-02 0.108E-02
 0.969E-03 0.853E-03 0.708E-03 0.578E-03 0.454E-03 0.364E-03 0.306E-03 0.274E-03
 0.245E-03 0.211E-03 0.174E-03 0.137E-03 0.113E-03 0.988E-04 0.890E-04 0.770E-04
 0.636E-04 0.521E-04 0.441E-04 0.393E-04 0.339E-04 0.287E-04 0.241E-04 0.209E-04
 0.180E-04 0.154E-04 0.131E-04 0.116E-04
END of PSCTR-controll parameters
 local part
   75.5890395431569     
  0.17108872E+03  0.17106429E+03  0.17097393E+03  0.17082355E+03  0.17061350E+03
  0.17034423E+03  0.17001634E+03  0.16963048E+03  0.16918744E+03  0.16868806E+03
  0.16813329E+03  0.16752411E+03  0.16686161E+03  0.16614691E+03  0.16538122E+03
  0.16456582E+03  0.16370205E+03  0.16279132E+03  0.16183510E+03  0.16083492E+03
  0.15979235E+03  0.15870903E+03  0.15758661E+03  0.15642677E+03  0.15523122E+03
  0.15400166E+03  0.15273981E+03  0.15144737E+03  0.15012605E+03  0.14877754E+03
  0.14740349E+03  0.14600557E+03  0.14458539E+03  0.14314455E+03  0.14168461E+03
  0.14020708E+03  0.13871343E+03  0.13720511E+03  0.13568348E+03  0.13414988E+03
  0.13260558E+03  0.13105178E+03  0.12948966E+03  0.12792033E+03  0.12634482E+03
  0.12476413E+03  0.12317921E+03  0.12159093E+03  0.12000013E+03  0.11840759E+03
  0.11681404E+03  0.11522015E+03  0.11362656E+03  0.11203387E+03  0.11044261E+03
  0.10885330E+03  0.10726642E+03  0.10568242E+03  0.10410173E+03  0.10252473E+03
  0.10095182E+03  0.99383355E+02  0.97819687E+02  0.96261158E+02  0.94708102E+02
  0.93160850E+02  0.91619735E+02  0.90085091E+02  0.88557257E+02  0.87036582E+02
  0.85523427E+02  0.84018163E+02  0.82521179E+02  0.81032878E+02  0.79553679E+02
  0.78084021E+02  0.76624359E+02  0.75175169E+02  0.73736943E+02  0.72310192E+02
  0.70895444E+02  0.69493244E+02  0.68104154E+02  0.66728749E+02  0.65367615E+02
  0.64021352E+02  0.62690565E+02  0.61375866E+02  0.60077871E+02  0.58797192E+02
  0.57534444E+02  0.56290232E+02  0.55065153E+02  0.53859793E+02  0.52674723E+02
  0.51510497E+02  0.50367645E+02  0.49246675E+02  0.48148068E+02  0.47072273E+02
  0.46019705E+02  0.44990746E+02  0.43985737E+02  0.43004978E+02  0.42048726E+02
  0.41117194E+02  0.40210547E+02  0.39328903E+02  0.38472330E+02  0.37640847E+02
  0.36834421E+02  0.36052969E+02  0.35296357E+02  0.34564399E+02  0.33856859E+02
  0.33173451E+02  0.32513840E+02  0.31877644E+02  0.31264437E+02  0.30673748E+02
  0.30105063E+02  0.29557832E+02  0.29031467E+02  0.28525345E+02  0.28038816E+02
  0.27571197E+02  0.27121785E+02  0.26689852E+02  0.26274654E+02  0.25875433E+02
  0.25491418E+02  0.25121833E+02  0.24765896E+02  0.24422828E+02  0.24091849E+02
  0.23772190E+02  0.23463090E+02  0.23163800E+02  0.22873591E+02  0.22591748E+02
  0.22317582E+02  0.22050426E+02  0.21789642E+02  0.21534617E+02  0.21284774E+02
  0.21039565E+02  0.20798477E+02  0.20561034E+02  0.20326795E+02  0.20095357E+02
  0.19866353E+02  0.19639455E+02  0.19414373E+02  0.19190854E+02  0.18968682E+02
  0.18747679E+02  0.18527699E+02  0.18308635E+02  0.18090409E+02  0.17872978E+02
  0.17656327E+02  0.17440470E+02  0.17225447E+02  0.17011323E+02  0.16798185E+02
  0.16586138E+02  0.16375306E+02  0.16165829E+02  0.15957858E+02  0.15751556E+02
  0.15547094E+02  0.15344649E+02  0.15144400E+02  0.14946530E+02  0.14751220E+02
  0.14558647E+02  0.14368985E+02  0.14182400E+02  0.13999051E+02  0.13819084E+02
  0.13642637E+02  0.13469834E+02  0.13300783E+02  0.13135580E+02  0.12974304E+02
  0.12817019E+02  0.12663769E+02  0.12514584E+02  0.12369476E+02  0.12228438E+02
  0.12091447E+02  0.11958464E+02  0.11829432E+02  0.11704278E+02  0.11582914E+02
  0.11465240E+02  0.11351140E+02  0.11240486E+02  0.11133140E+02  0.11028954E+02
  0.10927769E+02  0.10829422E+02  0.10733741E+02  0.10640550E+02  0.10549671E+02
  0.10460923E+02  0.10374123E+02  0.10289092E+02  0.10205649E+02  0.10123621E+02
  0.10042836E+02  0.99631283E+01  0.98843407E+01  0.98063224E+01  0.97289315E+01
  0.96520358E+01  0.95755129E+01  0.94992517E+01  0.94231522E+01  0.93471260E+01
  0.92710972E+01  0.91950018E+01  0.91187885E+01  0.90424181E+01  0.89658638E+01
  0.88891107E+01  0.88121554E+01  0.87350060E+01  0.86576809E+01  0.85802089E+01
  0.85026282E+01  0.84249858E+01  0.83473368E+01  0.82697432E+01  0.81922737E+01
  0.81150022E+01  0.80380073E+01  0.79613710E+01  0.78851780E+01  0.78095146E+01
  0.77344678E+01  0.76601244E+01  0.75865698E+01  0.75138879E+01  0.74421594E+01
  0.73714616E+01  0.73018676E+01  0.72334455E+01  0.71662578E+01  0.71003608E+01
  0.70358045E+01  0.69726317E+01  0.69108776E+01  0.68505702E+01  0.67917294E+01
  0.67343673E+01  0.66784880E+01  0.66240879E+01  0.65711554E+01  0.65196717E+01
  0.64696102E+01  0.64209378E+01  0.63736145E+01  0.63275940E+01  0.62828244E+01
  0.62392484E+01  0.61968042E+01  0.61554255E+01  0.61150428E+01  0.60755836E+01
  0.60369734E+01  0.59991358E+01  0.59619939E+01  0.59254704E+01  0.58894883E+01
  0.58539718E+01  0.58188466E+01  0.57840406E+01  0.57494845E+01  0.57151123E+01
  0.56808614E+01  0.56466738E+01  0.56124958E+01  0.55782788E+01  0.55439791E+01
  0.55095589E+01  0.54749857E+01  0.54402328E+01  0.54052795E+01  0.53701108E+01
  0.53347174E+01  0.52990960E+01  0.52632486E+01  0.52271827E+01  0.51909112E+01
  0.51544515E+01  0.51178262E+01  0.50810618E+01  0.50441888E+01  0.50072415E+01
  0.49702569E+01  0.49332748E+01  0.48963374E+01  0.48594884E+01  0.48227725E+01
  0.47862357E+01  0.47499238E+01  0.47138827E+01  0.46781577E+01  0.46427928E+01
  0.46078309E+01  0.45733127E+01  0.45392768E+01  0.45057593E+01  0.44727932E+01
  0.44404084E+01  0.44086313E+01  0.43774846E+01  0.43469872E+01  0.43171541E+01
  0.42879961E+01  0.42595202E+01  0.42317291E+01  0.42046213E+01  0.41781916E+01
  0.41524308E+01  0.41273257E+01  0.41028597E+01  0.40790126E+01  0.40557610E+01
  0.40330788E+01  0.40109368E+01  0.39893036E+01  0.39681459E+01  0.39474284E+01
  0.39271147E+01  0.39071669E+01  0.38875469E+01  0.38682159E+01  0.38491351E+01
  0.38302661E+01  0.38115710E+01  0.37930128E+01  0.37745560E+01  0.37561664E+01
  0.37378116E+01  0.37194614E+01  0.37010879E+01  0.36826655E+01  0.36641714E+01
  0.36455855E+01  0.36268908E+01  0.36080729E+01  0.35891209E+01  0.35700266E+01
  0.35507850E+01  0.35313940E+01  0.35118547E+01  0.34921709E+01  0.34723494E+01
  0.34523995E+01  0.34323331E+01  0.34121645E+01  0.33919099E+01  0.33715878E+01
  0.33512180E+01  0.33308220E+01  0.33104225E+01  0.32900431E+01  0.32697081E+01
  0.32494424E+01  0.32292709E+01  0.32092186E+01  0.31893104E+01  0.31695703E+01
  0.31500219E+01  0.31306875E+01  0.31115885E+01  0.30927447E+01  0.30741744E+01
  0.30558943E+01  0.30379191E+01  0.30202616E+01  0.30029325E+01  0.29859404E+01
  0.29692919E+01  0.29529912E+01  0.29370402E+01  0.29214389E+01  0.29061849E+01
  0.28912736E+01  0.28766987E+01  0.28624514E+01  0.28485214E+01  0.28348966E+01
  0.28215632E+01  0.28085061E+01  0.27957088E+01  0.27831537E+01  0.27708224E+01
  0.27586955E+01  0.27467534E+01  0.27349757E+01  0.27233421E+01  0.27118321E+01
  0.27004254E+01  0.26891023E+01  0.26778432E+01  0.26666295E+01  0.26554435E+01
  0.26442682E+01  0.26330880E+01  0.26218885E+01  0.26106566E+01  0.25993807E+01
  0.25880506E+01  0.25766578E+01  0.25651954E+01  0.25536579E+01  0.25420417E+01
  0.25303449E+01  0.25185669E+01  0.25067091E+01  0.24947741E+01  0.24827663E+01
  0.24706912E+01  0.24585559E+01  0.24463685E+01  0.24341383E+01  0.24218756E+01
  0.24095913E+01  0.23972974E+01  0.23850062E+01  0.23727307E+01  0.23604839E+01
  0.23482793E+01  0.23361303E+01  0.23240503E+01  0.23120522E+01  0.23001488E+01
  0.22883525E+01  0.22766747E+01  0.22651265E+01  0.22537178E+01  0.22424580E+01
  0.22313553E+01  0.22204168E+01  0.22096487E+01  0.21990560E+01  0.21886425E+01
  0.21784108E+01  0.21683625E+01  0.21584976E+01  0.21488155E+01  0.21393138E+01
  0.21299895E+01  0.21208383E+01  0.21118549E+01  0.21030331E+01  0.20943659E+01
  0.20858453E+01  0.20774629E+01  0.20692095E+01  0.20610756E+01  0.20530511E+01
  0.20451257E+01  0.20372888E+01  0.20295298E+01  0.20218381E+01  0.20142031E+01
  0.20066146E+01  0.19990624E+01  0.19915371E+01  0.19840294E+01  0.19765307E+01
  0.19690331E+01  0.19615293E+01  0.19540128E+01  0.19464778E+01  0.19389194E+01
  0.19313334E+01  0.19237166E+01  0.19160666E+01  0.19083819E+01  0.19006620E+01
  0.18929070E+01  0.18851181E+01  0.18772973E+01  0.18694471E+01  0.18615709E+01
  0.18536729E+01  0.18457577E+01  0.18378305E+01  0.18298969E+01  0.18219630E+01
  0.18140351E+01  0.18061200E+01  0.17982244E+01  0.17903553E+01  0.17825197E+01
  0.17747244E+01  0.17669763E+01  0.17592819E+01  0.17516476E+01  0.17440794E+01
  0.17365829E+01  0.17291632E+01  0.17218251E+01  0.17145725E+01  0.17074092E+01
  0.17003380E+01  0.16933614E+01  0.16864811E+01  0.16796982E+01  0.16730132E+01
  0.16664258E+01  0.16599353E+01  0.16535402E+01  0.16472384E+01  0.16410274E+01
  0.16349041E+01  0.16288648E+01  0.16229055E+01  0.16170217E+01  0.16112088E+01
  0.16054616E+01  0.15997749E+01  0.15941432E+01  0.15885610E+01  0.15830227E+01
  0.15775226E+01  0.15720552E+01  0.15666149E+01  0.15611966E+01  0.15557950E+01
  0.15504055E+01  0.15450236E+01  0.15396451E+01  0.15342664E+01  0.15288841E+01
  0.15234954E+01  0.15180978E+01  0.15126895E+01  0.15072691E+01  0.15018356E+01
  0.14963885E+01  0.14909279E+01  0.14854545E+01  0.14799691E+01  0.14744732E+01
  0.14689688E+01  0.14634581E+01  0.14579438E+01  0.14524288E+01  0.14469164E+01
  0.14414100E+01  0.14359133E+01  0.14304301E+01  0.14249643E+01  0.14195199E+01
  0.14141009E+01  0.14087112E+01  0.14033548E+01  0.13980353E+01  0.13927564E+01
  0.13875216E+01  0.13823338E+01  0.13771960E+01  0.13721108E+01  0.13670802E+01
  0.13621063E+01  0.13571905E+01  0.13523338E+01  0.13475370E+01  0.13428004E+01
  0.13381238E+01  0.13335068E+01  0.13289484E+01  0.13244475E+01  0.13200023E+01
  0.13156108E+01  0.13112707E+01  0.13069794E+01  0.13027339E+01  0.12985312E+01
  0.12943679E+01  0.12902406E+01  0.12861457E+01  0.12820794E+01  0.12780381E+01
  0.12740180E+01  0.12700154E+01  0.12660267E+01  0.12620484E+01  0.12580771E+01
  0.12541096E+01  0.12501430E+01  0.12461744E+01  0.12422013E+01  0.12382218E+01
  0.12342338E+01  0.12302360E+01  0.12262271E+01  0.12222063E+01  0.12181731E+01
  0.12141276E+01  0.12100699E+01  0.12060007E+01  0.12019208E+01  0.11978316E+01
  0.11937348E+01  0.11896321E+01  0.11855258E+01  0.11814183E+01  0.11773123E+01
  0.11732105E+01  0.11691160E+01  0.11650318E+01  0.11609612E+01  0.11569073E+01
  0.11528734E+01  0.11488626E+01  0.11448782E+01  0.11409231E+01  0.11370004E+01
  0.11331127E+01  0.11292627E+01  0.11254528E+01  0.11216850E+01  0.11179613E+01
  0.11142831E+01  0.11106518E+01  0.11070683E+01  0.11035331E+01  0.11000466E+01
  0.10966086E+01  0.10932187E+01  0.10898763E+01  0.10865802E+01  0.10833290E+01
  0.10801212E+01  0.10769546E+01  0.10738271E+01  0.10707362E+01  0.10676791E+01
  0.10646530E+01  0.10616548E+01  0.10586812E+01  0.10557291E+01  0.10527950E+01
  0.10498755E+01  0.10469674E+01  0.10440672E+01  0.10411717E+01  0.10382778E+01
  0.10353824E+01  0.10324826E+01  0.10295758E+01  0.10266594E+01  0.10237314E+01
  0.10207897E+01  0.10178327E+01  0.10148590E+01  0.10118677E+01  0.10088578E+01
  0.10058292E+01  0.10027818E+01  0.99971571E+00  0.99663166E+00  0.99353053E+00
  0.99041355E+00  0.98728221E+00  0.98413831E+00  0.98098392E+00  0.97782132E+00
  0.97465303E+00  0.97148176E+00  0.96831039E+00  0.96514189E+00  0.96197937E+00
  0.95882597E+00  0.95568487E+00  0.95255927E+00  0.94945229E+00  0.94636703E+00
  0.94330648E+00  0.94027349E+00  0.93727079E+00  0.93430092E+00  0.93136620E+00
  0.92846873E+00  0.92561035E+00  0.92279264E+00  0.92001687E+00  0.91728401E+00
  0.91459471E+00  0.91194932E+00  0.90934785E+00  0.90679001E+00  0.90427517E+00
  0.90180243E+00  0.89937054E+00  0.89697800E+00  0.89462302E+00  0.89230354E+00
  0.89001727E+00  0.88776169E+00  0.88553409E+00  0.88333159E+00  0.88115118E+00
  0.87898973E+00  0.87684404E+00  0.87471088E+00  0.87258699E+00  0.87046913E+00
  0.86835412E+00  0.86623886E+00  0.86412032E+00  0.86199565E+00  0.85986213E+00
  0.85771722E+00  0.85555862E+00  0.85338423E+00  0.85119224E+00  0.84898109E+00
  0.84674952E+00  0.84449656E+00  0.84222155E+00  0.83992414E+00  0.83760428E+00
  0.83526224E+00  0.83289857E+00  0.83051415E+00  0.82811010E+00  0.82568787E+00
  0.82324913E+00  0.82079582E+00  0.81833010E+00  0.81585434E+00  0.81337107E+00
  0.81088301E+00  0.80839298E+00  0.80590389E+00  0.80341873E+00  0.80094051E+00
  0.79847226E+00  0.79601699E+00  0.79357763E+00  0.79115707E+00  0.78875807E+00
  0.78638328E+00  0.78403516E+00  0.78171604E+00  0.77942799E+00  0.77717289E+00
  0.77495236E+00  0.77276777E+00  0.77062019E+00  0.76851043E+00  0.76643901E+00
  0.76440615E+00  0.76241179E+00  0.76045557E+00  0.75853685E+00  0.75665472E+00
  0.75480798E+00  0.75299519E+00  0.75121466E+00  0.74946445E+00  0.74774243E+00
  0.74604627E+00  0.74437348E+00  0.74272142E+00  0.74108734E+00  0.73946841E+00
  0.73786173E+00  0.73626438E+00  0.73467344E+00  0.73308599E+00  0.73149919E+00
  0.72991024E+00  0.72831647E+00  0.72671530E+00  0.72510433E+00  0.72348132E+00
  0.72184422E+00  0.72019118E+00  0.71852062E+00  0.71683117E+00  0.71512172E+00
  0.71339143E+00  0.71163973E+00  0.70986631E+00  0.70807115E+00  0.70625447E+00
  0.70441677E+00  0.70255882E+00  0.70068163E+00  0.69878645E+00  0.69687476E+00
  0.69494827E+00  0.69300886E+00  0.69105861E+00  0.68909974E+00  0.68713462E+00
  0.68516570E+00  0.68319552E+00  0.68122667E+00  0.67926180E+00  0.67730351E+00
  0.67535444E+00  0.67341715E+00  0.67149416E+00  0.66958786E+00  0.66770059E+00
  0.66583449E+00  0.66399159E+00  0.66217372E+00  0.66038253E+00  0.65861945E+00
  0.65688569E+00  0.65518223E+00  0.65350980E+00  0.65186891E+00  0.65025981E+00
  0.64868251E+00  0.64713676E+00  0.64562210E+00  0.64413779E+00  0.64268290E+00
  0.64125626E+00  0.63985649E+00  0.63848201E+00  0.63713108E+00  0.63580178E+00
  0.63449206E+00  0.63319976E+00  0.63192259E+00  0.63065822E+00  0.62940426E+00
  0.62815829E+00  0.62691788E+00  0.62568062E+00  0.62444411E+00  0.62320605E+00
  0.62196419E+00  0.62071639E+00  0.61946062E+00  0.61819500E+00  0.61691781E+00
  0.61562750E+00  0.61432271E+00  0.61300227E+00  0.61166523E+00  0.61031085E+00
  0.60893859E+00  0.60754815E+00  0.60613944E+00  0.60471259E+00  0.60326794E+00
  0.60180607E+00  0.60032773E+00  0.59883389E+00  0.59732571E+00  0.59580451E+00
  0.59427180E+00  0.59272919E+00  0.59117846E+00  0.58962147E+00  0.58806016E+00
  0.58649656E+00  0.58493274E+00  0.58337078E+00  0.58181280E+00  0.58026089E+00
  0.57871711E+00  0.57718348E+00  0.57566194E+00  0.57415436E+00  0.57266248E+00
  0.57118794E+00  0.56973222E+00  0.56829666E+00  0.56688245E+00  0.56549057E+00
  0.56412184E+00  0.56277691E+00  0.56145620E+00  0.56015999E+00  0.55888832E+00
  0.55764106E+00  0.55641789E+00  0.55521831E+00  0.55404160E+00  0.55288692E+00
  0.55175323E+00  0.55063934E+00  0.54954393E+00  0.54846555E+00  0.54740265E+00
  0.54635356E+00  0.54531658E+00  0.54428991E+00  0.54327173E+00  0.54226018E+00
  0.54125342E+00  0.54024959E+00  0.53924686E+00  0.53824346E+00  0.53723766E+00
  0.53622782E+00  0.53521238E+00  0.53418991E+00  0.53315908E+00  0.53211870E+00
  0.53106772E+00  0.53000525E+00  0.52893054E+00  0.52784301E+00  0.52674224E+00
  0.52562798E+00  0.52450014E+00  0.52335879E+00  0.52220419E+00  0.52103674E+00
  0.51985699E+00  0.51866567E+00  0.51746361E+00  0.51625181E+00  0.51503136E+00
  0.51380347E+00  0.51256944E+00  0.51133064E+00  0.51008851E+00  0.50884455E+00
  0.50760026E+00  0.50635719E+00  0.50511690E+00  0.50388091E+00  0.50265076E+00
  0.50142791E+00  0.50021379E+00  0.49900975E+00  0.49781708E+00  0.49663695E+00
  0.49547045E+00  0.49431852E+00  0.49318202E+00  0.49206166E+00  0.49095802E+00
  0.48987154E+00  0.48880254E+00  0.48775117E+00  0.48671748E+00  0.48570134E+00
  0.48470249E+00  0.48372056E+00  0.48275502E+00  0.48180523E+00  0.48087042E+00
  0.47994973E+00  0.47904219E+00  0.47814675E+00  0.47726229E+00  0.47638762E+00
  0.47552150E+00  0.47466267E+00  0.47380982E+00  0.47296164E+00  0.47211682E+00
  0.47127406E+00  0.47043207E+00  0.46958962E+00  0.46874551E+00  0.46789861E+00
  0.46704786E+00  0.46619228E+00  0.46533099E+00  0.46446320E+00  0.46358822E+00
  0.46270549E+00  0.46181452E+00  0.46091497E+00  0.46000662E+00  0.45908933E+00
  0.45816311E+00  0.45722808E+00  0.45628446E+00  0.45533261E+00  0.45437297E+00
  0.45340609E+00  0.45243263E+00  0.45145330E+00  0.45046892E+00  0.44948036E+00
  0.44848855E+00  0.44749445E+00  0.44649908E+00  0.44550347E+00  0.44450868E+00
 gradient corrections used for XC
           5
 core charge-density (partial)
  0.48256423E+00  0.48232289E+00  0.48159957E+00  0.48039637E+00  0.47871675E+00
  0.47656557E+00  0.47394901E+00  0.47087456E+00  0.46735100E+00  0.46338834E+00
  0.45899776E+00  0.45419159E+00  0.44898323E+00  0.44338707E+00  0.43741848E+00
  0.43109365E+00  0.42442962E+00  0.41744412E+00  0.41015553E+00  0.40258280E+00
  0.39474534E+00  0.38666299E+00  0.37835589E+00  0.36984440E+00  0.36114907E+00
  0.35229050E+00  0.34328930E+00  0.33416600E+00  0.32494096E+00  0.31563435E+00
  0.30626602E+00  0.29685548E+00  0.28742184E+00  0.27798371E+00  0.26855919E+00
  0.25916581E+00  0.24982047E+00  0.24053943E+00  0.23133824E+00  0.22223172E+00
  0.21323396E+00  0.20435825E+00  0.19561709E+00  0.18702218E+00  0.17858437E+00
  0.17031372E+00  0.16221943E+00  0.15430987E+00  0.14659260E+00  0.13907434E+00
  0.13176101E+00  0.12465772E+00  0.11776883E+00  0.11109789E+00  0.10464775E+00
  0.98420513E-01  0.92417599E-01  0.86639755E-01  0.81087085E-01  0.75759084E-01
  0.70654662E-01  0.65772179E-01  0.61109472E-01  0.56663894E-01  0.52432341E-01
  0.48411286E-01  0.44596813E-01  0.40984651E-01  0.37570199E-01  0.34348570E-01
  0.31314610E-01  0.28462940E-01  0.25787977E-01  0.23283971E-01  0.20945027E-01
  0.18765139E-01  0.16738211E-01  0.14858085E-01  0.13118566E-01  0.11513444E-01
  0.10036516E-01  0.86816084E-02  0.74425926E-02  0.63134072E-02  0.52880730E-02
  0.43607088E-02  0.35255460E-02  0.27769414E-02  0.21093892E-02  0.15175317E-02
  0.99616823E-03  0.54026400E-03  0.14495673E-03 -0.19443721E-03 -0.48241795E-03
 -0.72329821E-03 -0.92120043E-03 -0.10800548E-02 -0.12035983E-02 -0.12953742E-02
 -0.13587331E-02 -0.13968337E-02 -0.14126453E-02 -0.14089502E-02 -0.13883470E-02
 -0.13532545E-02 -0.13059157E-02 -0.12484028E-02 -0.11826224E-02 -0.11103206E-02
 -0.10330892E-02 -0.95237134E-03 -0.86946807E-03 -0.78554461E-03 -0.70163695E-03
 -0.61865846E-03 -0.53740665E-03 -0.45856988E-03 -0.38273406E-03 -0.31038937E-03
 -0.24193686E-03 -0.17769497E-03 -0.11790596E-03 -0.62742139E-04 -0.12312015E-04
  0.33333815E-04  0.74196908E-04  0.11032546E-03  0.14180900E-03  0.16877331E-03
  0.19137560E-03  0.20979993E-03  0.22425285E-03  0.23495936E-03  0.24215905E-03
  0.24610257E-03  0.24704832E-03  0.24525940E-03  0.24100081E-03  0.23453693E-03
  0.22612920E-03  0.21603405E-03  0.20450110E-03  0.19177152E-03  0.17807666E-03
  0.16363685E-03  0.14866039E-03  0.13334277E-03  0.11786605E-03  0.10239836E-03
  0.87093597E-04  0.72091287E-04  0.57516525E-04  0.43480075E-04  0.30078567E-04
  0.17394799E-04  0.54981310E-05 -0.55550485E-05 -0.15720778E-04 -0.24966922E-04
 -0.33272521E-04 -0.40627096E-04 -0.47029925E-04 -0.52489286E-04 -0.57021697E-04
 -0.60651127E-04 -0.63408225E-04 -0.65329536E-04 -0.66456733E-04 -0.66835866E-04
 -0.66516623E-04 -0.65551621E-04 -0.63995723E-04 -0.61905387E-04 -0.59338041E-04
 -0.56351511E-04 -0.53003469E-04 -0.49350933E-04 -0.45449805E-04 -0.41354449E-04
 -0.37117314E-04 -0.32788600E-04 -0.28415961E-04 -0.24044260E-04 -0.19715352E-04
 -0.15467917E-04 -0.11337328E-04 -0.73555551E-05 -0.35511068E-05  0.50997369E-07
  0.34292210E-05  0.65654759E-05  0.94450606E-05  0.12056573E-04  0.14391802E-04
  0.16445597E-04  0.18215721E-04  0.19702686E-04  0.20909579E-04  0.21841873E-04
  0.22507231E-04  0.22915303E-04  0.23077520E-04  0.23006884E-04  0.22717754E-04
  0.22225642E-04  0.21547002E-04  0.20699031E-04  0.19699470E-04  0.18566413E-04
  0.17318129E-04  0.15972890E-04  0.14548802E-04  0.13063662E-04  0.11534814E-04
  0.99790187E-05  0.84123424E-05  0.68500505E-05  0.53065187E-05  0.37951543E-05
  0.23283321E-05  0.91734099E-06 -0.42765535E-06 -0.16976474E-05 -0.28847961E-05
 -0.39824393E-05 -0.49850862E-05 -0.58884038E-05 -0.66891924E-05 -0.73853539E-05
 -0.79758516E-05 -0.84606632E-05 -0.88407278E-05 -0.91178867E-05 -0.92948206E-05
 -0.93749813E-05 -0.93625224E-05 -0.92622251E-05 -0.90794248E-05 -0.88199346E-05
 -0.84899701E-05 -0.80960739E-05 -0.76450410E-05 -0.71438460E-05 -0.65995726E-05
 -0.60193450E-05 -0.54102634E-05 -0.47793420E-05 -0.41334509E-05 -0.34792630E-05
 -0.28232038E-05 -0.21714070E-05 -0.15296743E-05 -0.90343970E-06 -0.29773944E-06
  0.28281390E-06  0.83405197E-06  0.13522665E-05  0.18342204E-05  0.22771545E-05
  0.26787892E-05  0.30373228E-05  0.33514249E-05  0.36202267E-05  0.38433070E-05
  0.40206760E-05  0.41527552E-05  0.42403550E-05  0.42846499E-05  0.42871517E-05
  0.42496814E-05  0.41743384E-05  0.40634703E-05  0.39196410E-05  0.37455980E-05
  0.35442407E-05  0.33185875E-05  0.30717443E-05  0.28068733E-05  0.25271622E-05
  0.22357954E-05  0.19359257E-05  0.16306479E-05  0.13229740E-05  0.10158100E-05
  0.71193494E-06  0.41398147E-06  0.12441894E-06 -0.15446159E-06 -0.42056016E-06
 -0.67197840E-06 -0.90702802E-06 -0.11242369E-05 -0.13223534E-05 -0.15003479E-05
 -0.16574132E-05 -0.17929626E-05 -0.19066258E-05 -0.19982434E-05 -0.20678603E-05
 -0.21157162E-05 -0.21422367E-05 -0.21480212E-05 -0.21338312E-05 -0.21005770E-05
 -0.20493037E-05 -0.19811769E-05 -0.18974675E-05 -0.17995361E-05 -0.16888180E-05
 -0.15668074E-05 -0.14350418E-05 -0.12950870E-05 -0.11485220E-05 -0.99692464E-06
 -0.84185772E-06 -0.68485579E-06 -0.52741271E-06 -0.37096994E-06 -0.21690589E-06
 -0.66526067E-07  0.78945650E-07  0.21837478E-06  0.35072292E-06  0.47505329E-06
  0.59053526E-06  0.69644776E-06  0.79218157E-06  0.87724061E-06  0.95124217E-06
  0.10139161E-05  0.10651033E-05  0.11047527E-05  0.11329182E-05  0.11497542E-05
  0.11555107E-05  0.11505276E-05  0.11352286E-05  0.11101144E-05  0.10757556E-05
  0.10327851E-05  0.98189039E-06  0.92380566E-06  0.85930353E-06  0.78918697E-06
  0.71428116E-06  0.63542545E-06  0.55346545E-06  0.46924536E-06  0.38360061E-06
  0.29735075E-06  0.21129281E-06  0.12619502E-06  0.42791023E-07 -0.38225401E-07
 -0.11620512E-06 -0.19054785E-06 -0.26070581E-06 -0.32618677E-06 -0.38655658E-06
 -0.44144098E-06 -0.49052696E-06 -0.53356347E-06 -0.57036160E-06 -0.60079415E-06
 -0.62479477E-06 -0.64235650E-06 -0.65352994E-06 -0.65842088E-06 -0.65718760E-06
 -0.65003776E-06 -0.63722496E-06 -0.61904507E-06 -0.59583218E-06 -0.56795453E-06
 -0.53581010E-06 -0.49982215E-06 -0.46043476E-06 -0.41810818E-06 -0.37331429E-06
 -0.32653207E-06 -0.27824320E-06 -0.22892765E-06 -0.17905958E-06 -0.12910330E-06
 -0.79509496E-07 -0.30711709E-07  0.16876991E-07  0.62866989E-07  0.10689484E-06
  0.14862566E-06  0.18775521E-06  0.22401162E-06  0.25715684E-06  0.28698764E-06
  0.31333640E-06  0.33607149E-06  0.35509732E-06  0.37035415E-06  0.38181748E-06
  0.38949723E-06  0.39343667E-06  0.39371096E-06  0.39042562E-06  0.38371463E-06
  0.37373846E-06  0.36068187E-06  0.34475153E-06  0.32617359E-06  0.30519111E-06
  0.28206143E-06  0.25705347E-06  0.23044504E-06  0.20252013E-06  0.17356625E-06
  0.14387174E-06  0.11372327E-06  0.83403351E-07  0.53187925E-07  0.23344167E-07
 -0.58716366E-08 -0.34216032E-07 -0.61460180E-07 -0.87391452E-07 -0.11181485E-06
 -0.13455423E-06 -0.15545331E-06 -0.17437651E-06 -0.19120954E-06 -0.20585984E-06
 -0.21825678E-06 -0.22835164E-06 -0.23611752E-06 -0.24154885E-06 -0.24466098E-06
 -0.24548936E-06 -0.24408874E-06 -0.24053215E-06 -0.23490975E-06 -0.22732755E-06
 -0.21790608E-06 -0.20677892E-06 -0.19409117E-06 -0.17999786E-06 -0.16466232E-06
 -0.14825452E-06 -0.13094939E-06 -0.11292515E-06 -0.94361656E-07 -0.75438773E-07
 -0.56334785E-07 -0.37224871E-07 -0.18279647E-07  0.33622006E-09  0.18465304E-07
  0.35958614E-07  0.52676686E-07  0.68490561E-07  0.83282647E-07  0.96947459E-07
  0.10939223E-06  0.12053740E-06  0.13031698E-06  0.13867878E-06  0.14558448E-06
  0.15100969E-06  0.15494373E-06  0.15738939E-06  0.15836262E-06  0.15789195E-06
  0.15601803E-06  0.15279287E-06  0.14827916E-06  0.14254942E-06  0.13568512E-06
  0.12777573E-06  0.11891774E-06  0.10921364E-06  0.98770841E-07  0.87700653E-07
  0.76117160E-07  0.64136178E-07  0.51874176E-07  0.39447246E-07  0.26970082E-07
  0.14555008E-07  0.23110490E-08 -0.96569513E-08 -0.21249149E-07 -0.32371459E-07
 -0.42936239E-07 -0.52862909E-07 -0.62078486E-07 -0.70518044E-07 -0.78125091E-07
 -0.84851863E-07 -0.90659533E-07 -0.95518339E-07 -0.99407631E-07 -0.10231583E-06
 -0.10424032E-06 -0.10518725E-06 -0.10517127E-06 -0.10421522E-06 -0.10234972E-06
 -0.99612697E-07 -0.96048918E-07 -0.91709410E-07 -0.86650871E-07 -0.80935036E-07
 -0.74628016E-07 -0.67799616E-07 -0.60522631E-07 -0.52872140E-07 -0.44924787E-07
 -0.36758075E-07 -0.28449658E-07 -0.20076662E-07 -0.11715010E-07 -0.34387862E-08
  0.46803748E-08  0.12573863E-07  0.20176629E-07  0.27427674E-07  0.34270492E-07
  0.40653473E-07  0.46530238E-07  0.51859933E-07  0.56607465E-07  0.60743675E-07
  0.64245471E-07  0.67095886E-07  0.69284094E-07  0.70805370E-07  0.71660990E-07
  0.71858092E-07  0.71409477E-07  0.70333378E-07  0.68653169E-07  0.66397057E-07
  0.63597718E-07  0.60291914E-07  0.56520083E-07  0.52325897E-07  0.47755809E-07
  0.42858583E-07  0.37684815E-07  0.32286449E-07  0.26716286E-07  0.21027505E-07
  0.15273183E-07  0.95058353E-08  0.37769590E-08 -0.18633940E-08 -0.73670281E-08
 -0.12687988E-07 -0.17782917E-07 -0.22611379E-07 -0.27136157E-07 -0.31323508E-07
 -0.35143389E-07 -0.38569643E-07 -0.41580143E-07 -0.44156906E-07 -0.46286163E-07
 -0.47958390E-07 -0.49168302E-07 -0.49914813E-07 -0.50200955E-07 -0.50033768E-07
 -0.49424151E-07 -0.48386688E-07 -0.46939443E-07 -0.45103725E-07 -0.42903841E-07
 -0.40366809E-07 -0.37522075E-07 -0.34401196E-07 -0.31037522E-07 -0.27465868E-07
 -0.23722169E-07 -0.19843152E-07 -0.15865988E-07 -0.11827958E-07 -0.77661238E-08
 -0.37170067E-08  0.28372547E-09  0.42015536E-08  0.80033878E-08  0.11657830E-07
  0.15135418E-07  0.18408841E-07  0.21453142E-07  0.24245890E-07  0.26767321E-07
  0.29000465E-07  0.30931239E-07  0.32548510E-07  0.33844136E-07  0.34812979E-07
  0.35452891E-07  0.35764672E-07  0.35752006E-07  0.35421370E-07  0.34781926E-07
  0.33845383E-07  0.32625847E-07  0.31139648E-07  0.29405153E-07  0.27442566E-07
  0.25273714E-07  0.22921820E-07  0.20411278E-07  0.17767408E-07  0.15016220E-07
  0.12184172E-07  0.92979257E-08  0.63841085E-08  0.34690815E-08  0.57871102E-09
 -0.22618493E-08 -0.50283662E-08 -0.76977224E-08 -0.10248099E-07 -0.12659143E-07
 -0.14912119E-07 -0.16990041E-07 -0.18877793E-07 -0.20562222E-07 -0.22032221E-07
 -0.23278785E-07 -0.24295052E-07 -0.25076324E-07 -0.25620065E-07 -0.25925888E-07
 -0.25995510E-07 -0.25832707E-07 -0.25443234E-07 -0.24834745E-07 -0.24016682E-07
 -0.23000168E-07 -0.21797870E-07 -0.20423862E-07 -0.18893479E-07 -0.17223150E-07
 -0.15430242E-07 -0.13532884E-07 -0.11549796E-07 -0.95001129E-08 -0.74032086E-08
 -0.52785206E-08 -0.31453782E-08 -0.10228338E-08  0.10704991E-08  0.31166026E-08
  0.50982015E-08  0.69989024E-08  0.88033222E-08  0.10497205E-07  0.12067526E-07
  0.13502588E-07  0.14792097E-07  0.15927226E-07  0.16900673E-07  0.17706692E-07
  0.18341118E-07  0.18801376E-07  0.19086473E-07  0.19196984E-07  0.19135011E-07
  0.18904146E-07  0.18509408E-07  0.17957172E-07  0.17255095E-07  0.16412020E-07
  0.15437883E-07  0.14343600E-07  0.13140960E-07  0.11842500E-07  0.10461386E-07
  0.90112858E-08  0.75062363E-08  0.59605175E-08  0.43885205E-08  0.28046195E-08
  0.12230453E-08 -0.34223726E-09 -0.18776479E-08 -0.33701038E-08 -0.48071261E-08
 -0.61769394E-08 -0.74685635E-08 -0.86718962E-08 -0.97777876E-08 -0.10778104E-07
 -0.11665782E-07 -0.12434874E-07 -0.13080579E-07 -0.13599268E-07 -0.13988493E-07
 -0.14246992E-07 -0.14374679E-07 -0.14372623E-07 -0.14243020E-07 -0.13989156E-07
 -0.13615361E-07 -0.13126947E-07 -0.12530153E-07 -0.11832067E-07 -0.11040557E-07
 -0.10164180E-07 -0.92121049E-08 -0.81940125E-08 -0.71200079E-08 -0.60005218E-08
 -0.48462139E-08 -0.36678754E-08 -0.24763314E-08 -0.12823455E-08 -0.96525758E-10
  0.10707662E-08  0.22095022E-08  0.33100703E-08  0.43633528E-08  0.53607984E-08
  0.62944879E-08  0.71571941E-08  0.79424341E-08  0.86445137E-08  0.92585654E-08
  0.97805776E-08  0.10207416E-07  0.10536837E-07  0.10767493E-07  0.10898930E-07
  0.10931578E-07  0.10866730E-07  0.10706521E-07  0.10453893E-07  0.10112556E-07
  0.96869446E-08  0.91821656E-08  0.86039443E-08  0.79585626E-08  0.72527957E-08
  0.64938442E-08  0.56892641E-08  0.48468947E-08  0.39747849E-08  0.30811192E-08
  0.21741436E-08  0.12620915E-08  0.35311194E-09 -0.54480095E-09 -0.14238761E-08
 -0.22766301E-08 -0.30959291E-08 -0.38750456E-08 -0.46077117E-08 -0.52881671E-08
 -0.59112015E-08 -0.64721928E-08 -0.69671377E-08 -0.73926780E-08 -0.77461198E-08
 -0.80254475E-08 -0.82293302E-08 -0.83571238E-08 -0.84088654E-08 -0.83852627E-08
 -0.82876778E-08 -0.81181046E-08 -0.78791421E-08 -0.75739617E-08 -0.72062710E-08
 -0.67802730E-08 -0.63006211E-08 -0.57723715E-08 -0.52009327E-08 -0.45920124E-08
 -0.39515627E-08 -0.32857240E-08 -0.26007679E-08 -0.19030404E-08 -0.11989047E-08
 -0.49468476E-09  0.20338972E-09  0.88923659E-09  0.15569727E-08  0.22009628E-08
  0.28158653E-08  0.33966751E-08  0.39387624E-08  0.44379081E-08  0.48903347E-08
  0.52927331E-08  0.56422848E-08  0.59366793E-08  0.61741270E-08  0.63533674E-08
  0.64736720E-08  0.65348433E-08  0.65372085E-08  0.64816090E-08  0.63693853E-08
  0.62023580E-08  0.59828045E-08  0.57134327E-08  0.53973503E-08  0.50380322E-08
  0.46392840E-08  0.42052041E-08  0.37401429E-08  0.32486613E-08  0.27354872E-08
  0.22054716E-08  0.16635439E-08  0.11146675E-08  0.56379561E-09  0.15827706E-10
 -0.52443277E-09 -0.10523194E-08 -0.15633418E-08 -0.20532228E-08 -0.25179330E-08
 -0.29537225E-08 -0.33571504E-08 -0.37251101E-08 -0.40548523E-08 -0.43440042E-08
 -0.45905846E-08 -0.47930162E-08 -0.49501334E-08 -0.50611872E-08 -0.51258455E-08
 -0.51441902E-08 -0.51167109E-08 -0.50442944E-08 -0.49282118E-08 -0.47701014E-08
 -0.45719495E-08 -0.43360679E-08 -0.40650689E-08 -0.37618380E-08 -0.34295052E-08
 -0.30714134E-08 -0.26910861E-08 -0.22921943E-08 -0.18785216E-08 -0.14539296E-08
 -0.10223227E-08 -0.58761322E-09 -0.15368671E-09  0.27563182E-09  0.69661076E-09
  0.11056435E-08  0.14992784E-08  0.18742471E-08  0.22274910E-08  0.25561847E-08
  0.28577585E-08  0.31299170E-08  0.33706554E-08  0.35782739E-08  0.37513879E-08
  0.38889359E-08  0.39901850E-08  0.40547321E-08  0.40825038E-08  0.40737518E-08
  0.40290468E-08  0.39492691E-08  0.38355964E-08  0.36894895E-08  0.35126759E-08
  0.33071308E-08  0.30750560E-08  0.28188583E-08  0.25411247E-08  0.22445977E-08
  0.19321490E-08  0.16067524E-08  0.12714561E-08  0.92935516E-09  0.58356356E-09
  0.23718630E-09 -0.10670762E-09 -0.44511184E-09 -0.77510823E-09 -0.10938915E-08
 -0.13987922E-08 -0.16872989E-08 -0.19570777E-08 -0.22059907E-08 -0.24321122E-08
 -0.26337429E-08 -0.28094220E-08 -0.29579365E-08 -0.30783293E-08 -0.31699036E-08
 -0.32322262E-08 -0.32651274E-08 -0.32686994E-08 -0.32432921E-08 -0.31895061E-08
 -0.31081850E-08 -0.30004040E-08 -0.28674580E-08 -0.27108472E-08 -0.25322610E-08
 -0.23335609E-08 -0.21167620E-08 -0.18840127E-08 -0.16375749E-08 -0.13798019E-08
 -0.11131169E-08 -0.83999046E-09 -0.56291848E-09 -0.28439966E-09 -0.69134766E-11
  0.26710134E-09  0.53526780E-09  0.79529082E-09  0.10449764E-08  0.12822495E-08
  0.15051711E-08  0.17119533E-08  0.19009733E-08  0.20707855E-08  0.22201320E-08
  0.23479513E-08  0.24533853E-08  0.25357842E-08  0.25947095E-08  0.26299353E-08
  0.26414476E-08  0.26294419E-08  0.25943185E-08  0.25366768E-08  0.24573073E-08
  0.23571822E-08  0.22374448E-08  0.20993971E-08  0.19444864E-08  0.17742908E-08
  0.15905035E-08  0.13949168E-08  0.11894047E-08  0.97590556E-09  0.75640427E-09
  0.53291411E-09  0.30745872E-09  0.82054111E-10 -0.14130900E-09 -0.36068238E-09
 -0.57417694E-09 -0.77997865E-09 -0.97636358E-09 -0.11617120E-08 -0.13345213E-08
 -0.14934179E-08 -0.16371678E-08 -0.17646855E-08 -0.18750420E-08 -0.19674710E-08
 -0.20413736E-08 -0.20963217E-08 -0.21320595E-08 -0.21485038E-08 -0.21457425E-08
 -0.21240321E-08 -0.20837928E-08 -0.20256035E-08 -0.19501942E-08 -0.18584382E-08
 -0.17513424E-08 -0.16300369E-08 -0.14957636E-08 -0.13498639E-08 -0.11937657E-08
 -0.10289697E-08 -0.85703553E-09 -0.67956697E-09 -0.49819762E-09 -0.31457599E-09
 -0.13035081E-09  0.52843437E-10  0.23340080E-09  0.40975764E-09  0.58040590E-09
  0.74390574E-09  0.89889741E-09  0.10441123E-08  0.11783829E-08  0.13006521E-08
  0.14099812E-08  0.15055565E-08  0.15866953E-08  0.16528502E-08  0.17036124E-08
 kinetic energy density (partial)
  0.57008968E+02  0.56981837E+02  0.56900518E+02  0.56765230E+02  0.56576338E+02
  0.56334349E+02  0.56039911E+02  0.55693813E+02  0.55296976E+02  0.54850452E+02
  0.54355421E+02  0.53813182E+02  0.53225150E+02  0.52592850E+02  0.51917908E+02
  0.51202048E+02  0.50447080E+02  0.49654898E+02  0.48827467E+02  0.47966820E+02
  0.47075044E+02  0.46154279E+02  0.45206703E+02  0.44234528E+02  0.43239990E+02
  0.42225340E+02  0.41192840E+02  0.40144751E+02  0.39083323E+02  0.38010797E+02
  0.36929387E+02  0.35841278E+02  0.34748622E+02  0.33653526E+02  0.32558047E+02
  0.31464193E+02  0.30373907E+02  0.29289071E+02  0.28211498E+02  0.27142928E+02
  0.26085024E+02  0.25039370E+02  0.24007468E+02  0.22990734E+02  0.21990501E+02
  0.21008009E+02  0.20044413E+02  0.19100776E+02  0.18178071E+02  0.17277181E+02
  0.16398899E+02  0.15543931E+02  0.14712891E+02  0.13906311E+02  0.13124633E+02
  0.12368220E+02  0.11637353E+02  0.10932232E+02  0.10252985E+02  0.95996622E+01
  0.89722475E+01  0.83706555E+01  0.77947370E+01  0.72442821E+01  0.67190238E+01
  0.62186408E+01  0.57427619E+01  0.52909686E+01  0.48627995E+01  0.44577534E+01
  0.40752928E+01  0.37148480E+01  0.33758197E+01  0.30575832E+01  0.27594913E+01
  0.24808780E+01  0.22210610E+01  0.19793457E+01  0.17550274E+01  0.15473947E+01
  0.13557318E+01  0.11793216E+01  0.10174480E+01  0.86939818E+00  0.73446483E+00
  0.61194845E+00  0.50115909E+00  0.40141828E+00  0.31206061E+00  0.23243530E+00
  0.16190755E+00  0.99859816E-01  0.45692888E-01 -0.11731369E-02 -0.41298016E-01
 -0.75220650E-01 -0.10345850E+00 -0.12650714E+00 -0.14483986E+00 -0.15890748E+00
 -0.16913819E+00 -0.17593752E+00 -0.17968840E+00 -0.18075130E+00 -0.17946447E+00
 -0.17614427E+00 -0.17108551E+00 -0.16456192E+00 -0.15682664E+00 -0.14811281E+00
 -0.13863415E+00 -0.12858561E+00 -0.11814407E+00 -0.10746905E+00 -0.96703456E-01
 -0.85974362E-01 -0.75393765E-01 -0.65059402E-01 -0.55055544E-01 -0.45453807E-01
 -0.36313951E-01 -0.27684688E-01 -0.19604470E-01 -0.12102273E-01 -0.51983646E-02
  0.10949444E-02  0.67725708E-02  0.11835948E-01  0.16292340E-01  0.20154182E-01
  0.23438447E-01  0.26166041E-01  0.28361228E-01  0.30051086E-01  0.31264991E-01
  0.32034137E-01  0.32391085E-01  0.32369344E-01  0.32002984E-01  0.31326284E-01
  0.30373401E-01  0.29178087E-01  0.27773414E-01  0.26191548E-01  0.24463542E-01
  0.22619153E-01  0.20686695E-01  0.18692908E-01  0.16662856E-01  0.14619847E-01
  0.12585373E-01  0.10579068E-01  0.86186934E-02  0.67201275E-02  0.48973825E-02
  0.31626297E-02  0.15262394E-02 -0.31667013E-05 -0.14186542E-02 -0.27149038E-02
 -0.38881329E-02 -0.49360089E-02 -0.58575586E-02 -0.66530721E-02 -0.73240040E-02
 -0.78728719E-02 -0.83031544E-02 -0.86191878E-02 -0.88260637E-02 -0.89295281E-02
 -0.89358815E-02 -0.88518829E-02 -0.86846554E-02 -0.84415972E-02 -0.81302953E-02
 -0.77584440E-02 -0.73337693E-02 -0.68639569E-02 -0.63565864E-02 -0.58190713E-02
 -0.52586033E-02 -0.46821038E-02 -0.40961802E-02 -0.35070878E-02 -0.29206975E-02
 -0.23424692E-02 -0.17774299E-02 -0.12301574E-02 -0.70476879E-03 -0.20491370E-03
  0.26622820E-03  0.70594530E-03  0.11119883E-02  0.14825611E-02  0.18163078E-02
  0.21122974E-02  0.23700056E-02  0.25892940E-02  0.27703873E-02  0.29138494E-02
  0.30205573E-02  0.30916742E-02  0.31286219E-02  0.31330525E-02  0.31068197E-02
  0.30519504E-02  0.29706164E-02  0.28651062E-02  0.27377981E-02  0.25911334E-02
  0.24275910E-02  0.22496634E-02  0.20598333E-02  0.18605524E-02  0.16542208E-02
  0.14431689E-02  0.12296407E-02  0.10157780E-02  0.80360771E-03  0.59502960E-03
  0.39180676E-03  0.19555725E-03  0.77476207E-05 -0.17031186E-03 -0.33747045E-03
 -0.49273854E-03 -0.63528785E-03 -0.76445016E-03 -0.87971473E-03 -0.98072456E-03
 -0.10672714E-02 -0.11392898E-02 -0.11968503E-02 -0.12401517E-02 -0.12695126E-02
 -0.12853623E-02 -0.12882315E-02 -0.12787424E-02 -0.12575983E-02 -0.12255734E-02
 -0.11835021E-02 -0.11322690E-02 -0.10727979E-02 -0.10060424E-02 -0.93297513E-03
 -0.85457872E-03 -0.77183635E-03 -0.68572301E-03 -0.59719721E-03 -0.50719328E-03
 -0.41661423E-03 -0.32632521E-03 -0.23714763E-03 -0.14985395E-03 -0.65163155E-04
  0.16263138E-04  0.93823834E-04  0.16698087E-03  0.23526104E-03  0.29825721E-03
  0.35562882E-03  0.40710189E-03  0.45246834E-03  0.49158488E-03  0.52437125E-03
  0.55080812E-03  0.57093449E-03  0.58484470E-03  0.59268510E-03  0.59465046E-03
  0.59098002E-03  0.58195345E-03  0.56788652E-03  0.54912676E-03  0.52604893E-03
  0.49905051E-03  0.46854723E-03  0.43496852E-03  0.39875312E-03  0.36034482E-03
  0.32018828E-03  0.27872502E-03  0.23638968E-03  0.19360643E-03  0.15078567E-03
  0.10832092E-03  0.66586096E-04  0.25932979E-04 -0.13310972E-04 -0.50844518E-04
 -0.86394223E-04 -0.11971573E-03 -0.15059474E-03 -0.17884768E-03 -0.20432206E-03
 -0.22689658E-03 -0.24648093E-03 -0.26301535E-03 -0.27646990E-03 -0.28684357E-03
 -0.29416309E-03 -0.29848163E-03 -0.29987724E-03 -0.29845118E-03 -0.29432612E-03
 -0.28764422E-03 -0.27856506E-03 -0.26726359E-03 -0.25392796E-03 -0.23875735E-03
 -0.22195978E-03 -0.20374989E-03 -0.18434682E-03 -0.16397212E-03 -0.14284761E-03
 -0.12119349E-03 -0.99226407E-04 -0.77157667E-04 -0.55191587E-04 -0.33523930E-04
 -0.12340496E-04  0.81841511E-05  0.27887815E-04  0.46621641E-04  0.64250947E-04
  0.80655890E-04  0.95731981E-04  0.10939046E-03  0.12155848E-03  0.13217921E-03
  0.14121173E-03  0.14863084E-03  0.15442668E-03  0.15860431E-03  0.16118309E-03
  0.16219604E-03  0.16168903E-03  0.15971992E-03  0.15635762E-03  0.15168112E-03
  0.14577841E-03  0.13874538E-03  0.13068472E-03  0.12170474E-03  0.11191824E-03
  0.10144136E-03  0.90392416E-04  0.78890797E-04  0.67055856E-04  0.55005862E-04
  0.42856992E-04  0.30722368E-04  0.18711168E-04  0.69277836E-05 -0.45289341E-05
 -0.15566367E-04 -0.26098741E-04 -0.36047651E-04 -0.45342515E-04 -0.53920935E-04
 -0.61728977E-04 -0.68721368E-04 -0.74861614E-04 -0.80122030E-04 -0.84483698E-04
 -0.87936347E-04 -0.90478160E-04 -0.92115519E-04 -0.92862679E-04 -0.92741387E-04
 -0.91780450E-04 -0.90015251E-04 -0.87487226E-04 -0.84243303E-04 -0.80335312E-04
 -0.75819372E-04 -0.70755254E-04 -0.65205741E-04 -0.59235976E-04 -0.52912813E-04
 -0.46304167E-04 -0.39478388E-04 -0.32503635E-04 -0.25447285E-04 -0.18375359E-04
 -0.11351979E-04 -0.44388622E-05  0.23051517E-05  0.88245330E-05  0.15067451E-04
  0.20986118E-04  0.26537091E-04  0.31681522E-04  0.36385361E-04  0.40619516E-04
  0.44359954E-04  0.47587768E-04  0.50289185E-04  0.52455537E-04  0.54083183E-04
  0.55173394E-04  0.55732193E-04  0.55770161E-04  0.55302212E-04  0.54347328E-04
  0.52928277E-04  0.51071296E-04  0.48805760E-04  0.46163831E-04  0.43180090E-04
  0.39891163E-04  0.36335338E-04  0.32552177E-04  0.28582133E-04  0.24466161E-04
  0.20245347E-04  0.15960539E-04  0.11651993E-04  0.73590319E-05  0.31197292E-05
 -0.10293962E-05 -0.50536570E-05 -0.89204529E-05 -0.12599500E-04 -0.16063031E-04
 -0.19285976E-04 -0.22246102E-04 -0.24924134E-04 -0.27303842E-04 -0.29372099E-04
 -0.31118914E-04 -0.32537432E-04 -0.33623906E-04 -0.34377647E-04 -0.34800947E-04
 -0.34898976E-04 -0.34679657E-04 -0.34153522E-04 -0.33333547E-04 -0.32234973E-04
 -0.30875110E-04 -0.29273124E-04 -0.27449825E-04 -0.25427431E-04 -0.23229340E-04
 -0.20879889E-04 -0.18404115E-04 -0.15827515E-04 -0.13175806E-04 -0.10474698E-04
 -0.77496587E-05 -0.50257030E-05 -0.23271787E-05  0.32242897E-06  0.29006829E-05
  0.53863647E-05  0.77596301E-05  0.10002149E-04  0.12097228E-04  0.14029915E-04
  0.15787087E-04  0.17357518E-04  0.18731930E-04  0.19903025E-04  0.20865497E-04
  0.21616032E-04  0.22153282E-04  0.22477829E-04  0.22592130E-04  0.22500451E-04
  0.22208778E-04  0.21724725E-04  0.21057424E-04  0.20217407E-04  0.19216477E-04
  0.18067573E-04  0.16784627E-04  0.15382415E-04  0.13876407E-04  0.12282614E-04
  0.10617431E-04  0.88974816E-05  0.71394711E-05  0.53600313E-05  0.35755782E-05
  0.18021713E-05  0.55381168E-07 -0.16498366E-05 -0.32992584E-05 -0.48795005E-05
 -0.63781166E-05 -0.77836856E-05 -0.90858870E-05 -0.10275566E-04 -0.11344788E-04
 -0.12286874E-04 -0.13096436E-04 -0.13769391E-04 -0.14302965E-04 -0.14695687E-04
 -0.14947373E-04 -0.15059093E-04 -0.15033136E-04 -0.14872958E-04 -0.14583129E-04
 -0.14169258E-04 -0.13637927E-04 -0.12996606E-04 -0.12253568E-04 -0.11417796E-04
 -0.10498888E-04 -0.95069571E-05 -0.84525324E-05 -0.73464535E-05 -0.61997696E-05
 -0.50236363E-05 -0.38292151E-05 -0.26275743E-05 -0.14295938E-05 -0.24587293E-06
  0.91335642E-06  0.20383119E-05  0.31197368E-05  0.41489701E-05  0.51180089E-05
  0.60195651E-05  0.68471126E-05  0.75949286E-05  0.82581258E-05  0.88326767E-05
  0.93154301E-05  0.97041193E-05  0.99973622E-05  0.10194654E-04  0.10296354E-04
  0.10303658E-04  0.10218575E-04  0.10043890E-04  0.97831195E-05  0.94404681E-05
  0.90207737E-05  0.85294524E-05  0.79724370E-05  0.73561143E-05  0.66872581E-05
  0.59729613E-05  0.52205664E-05  0.44375950E-05  0.36316779E-05  0.28104852E-05
  0.19816575E-05  0.11527395E-05  0.33111528E-06 -0.47605360E-06 -0.12618863E-05
 -0.20198377E-05 -0.27437489E-05 -0.34278932E-05 -0.40670179E-05 -0.46563804E-05
 -0.51917790E-05 -0.56695793E-05 -0.60867335E-05 -0.64407957E-05 -0.67299302E-05
 -0.69529154E-05 -0.71091417E-05 -0.71986037E-05 -0.72218883E-05 -0.71801565E-05
 -0.70751218E-05 -0.69090232E-05 -0.66845951E-05 -0.64050321E-05 -0.60739524E-05
 -0.56953559E-05 -0.52735823E-05 -0.48132647E-05 -0.43192837E-05 -0.37967184E-05
 -0.32507980E-05 -0.26868528E-05 -0.21102642E-05 -0.15264172E-05 -0.94065226E-06
 -0.35821893E-06  0.21576828E-06  0.77637252E-06  0.13188746E-05  0.18388102E-05
  0.23320043E-05  0.27946021E-05  0.32230968E-05  0.36143534E-05  0.39656292E-05
  0.42745899E-05  0.45393228E-05  0.47583442E-05  0.49306053E-05  0.50554917E-05
  0.51328212E-05  0.51628362E-05  0.51461939E-05  0.50839516E-05  0.49775502E-05
  0.48287937E-05  0.46398262E-05  0.44131063E-05  0.41513795E-05  0.38576482E-05
  0.35351404E-05  0.31872766E-05  0.28176361E-05  0.24299222E-05  0.20279274E-05
  0.16154979E-05  0.11964986E-05  0.77477913E-06  0.35413949E-06 -0.61702070E-07
 -0.46914048E-06 -0.86471352E-06 -0.12451296E-05 -0.16072937E-05 -0.19483308E-05
 -0.22656073E-05 -0.25567494E-05 -0.28196596E-05 -0.30525295E-05 -0.32538509E-05
 -0.34224229E-05 -0.35573573E-05 -0.36580802E-05 -0.37243314E-05 -0.37561608E-05
 -0.37539220E-05 -0.37182641E-05 -0.36501199E-05 -0.35506926E-05 -0.34214405E-05
 -0.32640589E-05 -0.30804612E-05 -0.28727578E-05 -0.26432340E-05 -0.23943263E-05
 -0.21285986E-05 -0.18487169E-05 -0.15574241E-05 -0.12575142E-05 -0.95180685E-06
 -0.64312206E-06 -0.33425516E-06 -0.27952636E-07  0.27311122E-06  0.56635661E-06
  0.84931932E-06  0.11196703E-05  0.13752341E-05  0.16140047E-05  0.18341608E-05
  0.20340785E-05  0.22123416E-05  0.23677511E-05  0.24993313E-05  0.26063351E-05
  0.26882458E-05  0.27447782E-05  0.27758766E-05  0.27817117E-05  0.27626745E-05
  0.27193695E-05  0.26526054E-05  0.25633844E-05  0.24528900E-05  0.23224732E-05
  0.21736380E-05  0.20080251E-05  0.18273954E-05  0.16336120E-05  0.14286223E-05
  0.12144392E-05  0.99312214E-06  0.76675827E-06  0.53744348E-06  0.30726377E-06
  0.78276978E-07 -0.14750485E-06 -0.36813245E-06 -0.58173550E-06 -0.78653771E-06
 -0.98087096E-06 -0.11631881E-05 -0.13320747E-05 -0.14862591E-05 -0.16246211E-05
 -0.17461999E-05 -0.18501990E-05 -0.19359911E-05 -0.20031207E-05 -0.20513048E-05
 -0.20804330E-05 -0.20905654E-05 -0.20819292E-05 -0.20549137E-05 -0.20100645E-05
 -0.19480759E-05 -0.18697824E-05 -0.17761488E-05 -0.16682596E-05 -0.15473076E-05
 -0.14145813E-05 -0.12714524E-05 -0.11193617E-05 -0.95980577E-06 -0.79432257E-06
 -0.62447725E-06 -0.45184792E-06 -0.27801145E-06 -0.10452965E-06  0.67064333E-07
  0.23527902E-06  0.39867713E-06  0.55588735E-06  0.70561538E-06  0.84665408E-06
  0.97789275E-06  0.10983253E-05  0.12070576E-05  0.13033132E-05  0.13864389E-05
  0.14559078E-05  0.15113225E-05  0.15524161E-05  0.15790529E-05  0.15912272E-05
  0.15890612E-05  0.15728022E-05  0.15428182E-05  0.14995925E-05  0.14437183E-05
  0.13758910E-05  0.12969009E-05  0.12076244E-05  0.11090151E-05  0.10020944E-05
  0.88794067E-06  0.76767973E-06  0.64247357E-06  0.51350972E-06  0.38199039E-06
  0.24912161E-06  0.11610251E-06 -0.15885142E-07 -0.14568708E-06 -0.27218634E-06
 -0.39431248E-06 -0.51105034E-06 -0.62144816E-06 -0.72462494E-06 -0.81977717E-06
 -0.90618470E-06 -0.98321582E-06 -0.10503315E-05 -0.11070885E-05 -0.11531423E-05
 -0.11882482E-05 -0.12122619E-05 -0.12251396E-05 -0.12269366E-05 -0.12178055E-05
 -0.11979929E-05 -0.11678365E-05 -0.11277601E-05 -0.10782690E-05 -0.10199439E-05
 -0.95343509E-06 -0.87945526E-06 -0.79877252E-06 -0.71220266E-06 -0.62060130E-06
 -0.52485570E-06 -0.42587648E-06 -0.32458922E-06 -0.22192609E-06 -0.11881748E-06
 -0.16183886E-07  0.85072135E-07  0.18407362E-06  0.27997655E-06  0.37197686E-06
  0.45931688E-06  0.54129136E-06  0.61725295E-06  0.68661698E-06  0.74886576E-06
  0.80355215E-06  0.85030242E-06  0.88881855E-06  0.91887967E-06  0.94034291E-06
  0.95314353E-06  0.95729433E-06  0.95288441E-06  0.94007728E-06  0.91910831E-06
  0.89028163E-06  0.85396644E-06  0.81059280E-06  0.76064697E-06  0.70466629E-06
  0.64323370E-06  0.57697195E-06  0.50653752E-06  0.43261435E-06  0.35590741E-06
  0.27713617E-06  0.19702802E-06  0.11631182E-06  0.35711345E-07 -0.44060962E-07
 -0.12231014E-06 -0.19836457E-06 -0.27158161E-06 -0.34135281E-06 -0.40710883E-06
 -0.46832388E-06 -0.52451976E-06 -0.57526940E-06 -0.62019991E-06 -0.65899510E-06
 -0.69139747E-06 -0.71720968E-06 -0.73629539E-06 -0.74857968E-06 -0.75404877E-06
 -0.75274937E-06 -0.74478733E-06 -0.73032597E-06 -0.70958376E-06 -0.68283168E-06
 -0.65039007E-06 -0.61262510E-06 -0.56994497E-06 -0.52279564E-06 -0.47165642E-06
 -0.41703529E-06 -0.35946399E-06 -0.29949300E-06 -0.23768646E-06 -0.17461698E-06
 -0.11086045E-06 -0.46990962E-07  0.16424266E-07  0.78829793E-07  0.13968669E-06
  0.19847708E-06  0.25470839E-06  0.30791741E-06  0.35767391E-06  0.40358405E-06
  0.44529332E-06  0.48248914E-06  0.51490307E-06  0.54231257E-06  0.56454234E-06
  0.58146521E-06  0.59300266E-06  0.59912483E-06  0.59985010E-06  0.59524434E-06
  0.58541965E-06  0.57053276E-06  0.55078305E-06  0.52641023E-06  0.49769166E-06
  0.46493943E-06  0.42849713E-06  0.38873640E-06  0.34605329E-06  0.30086440E-06
  0.25360299E-06  0.20471490E-06  0.15465444E-06  0.10388032E-06  0.52851481E-07
  0.20230917E-08 -0.48157444E-07 -0.97254325E-07 -0.14484704E-06 -0.19053389E-06
 -0.23393528E-06 -0.27469676E-06 -0.31249186E-06 -0.34702459E-06 -0.37803163E-06
 -0.40528427E-06 -0.42858993E-06 -0.44779343E-06 -0.46277787E-06 -0.47346512E-06
 -0.47981608E-06 -0.48183045E-06 -0.47954627E-06 -0.47303908E-06 -0.46242078E-06
 -0.44783815E-06 -0.42947113E-06 -0.40753079E-06 -0.38225708E-06 -0.35391634E-06
 -0.32279861E-06 -0.28921475E-06 -0.25349347E-06 -0.21597818E-06 -0.17702375E-06
 -0.13699328E-06 -0.96254758E-07 -0.55177763E-07 -0.14130181E-07  0.26525021E-07
  0.66432930E-07  0.10524972E-06  0.14264555E-06  0.17830727E-06  0.21194104E-06
  0.24327460E-06  0.27205944E-06  0.29807271E-06  0.32111882E-06  0.34103087E-06
  0.35767173E-06  0.37093490E-06  0.38074505E-06  0.38705829E-06  0.38986221E-06
  0.38917555E-06  0.38504764E-06  0.37755765E-06  0.36681344E-06  0.35295032E-06
  0.33612948E-06  0.31653624E-06  0.29437816E-06  0.26988288E-06  0.24329592E-06
  0.21487823E-06  0.18490376E-06  0.15365684E-06  0.12142958E-06  0.88519143E-07
  0.55225131E-07  0.21846855E-07 -0.11319275E-07 -0.43982336E-07 -0.75859392E-07
 -0.10667789E-06 -0.13617795E-06 -0.16411449E-06 -0.19025921E-06 -0.21440240E-06
 -0.23635460E-06 -0.25594797E-06 -0.27303754E-06 -0.28750223E-06 -0.29924560E-06
 -0.30819640E-06 -0.31430895E-06 -0.31756315E-06 -0.31796442E-06 -0.31554333E-06
 -0.31035502E-06 -0.30247839E-06 -0.29201520E-06 -0.27908880E-06 -0.26384288E-06
 -0.24643989E-06 -0.22705941E-06 -0.20589636E-06 -0.18315910E-06 -0.15906743E-06
 -0.13385051E-06 -0.10774475E-06 -0.80991593E-07 -0.53835379E-07 -0.26521115E-07
  0.70767321E-09  0.27611083E-07  0.53954903E-07  0.79512614E-07  0.10406730E-06
  0.12741344E-06  0.14935860E-06  0.16972498E-06  0.18835079E-06  0.20509150E-06
  0.21982095E-06  0.23243218E-06  0.24283821E-06  0.25097253E-06  0.25678951E-06
 Kinetic energy density valence
  0.27362957E+03  0.27337916E+03  0.27262998E+03  0.27138805E+03  0.26966323E+03
  0.26746903E+03  0.26482227E+03  0.26174272E+03  0.25825268E+03  0.25437657E+03
  0.25014046E+03  0.24557165E+03  0.24069824E+03  0.23554876E+03  0.23015180E+03
  0.22453573E+03  0.21872843E+03  0.21275707E+03  0.20664796E+03  0.20042637E+03
  0.19411649E+03  0.18774132E+03  0.18132263E+03  0.17488097E+03  0.16843565E+03
  0.16200471E+03  0.15560502E+03  0.14925223E+03  0.14296085E+03  0.13674426E+03
  0.13061476E+03  0.12458362E+03  0.11866107E+03  0.11285641E+03  0.10717799E+03
  0.10163329E+03  0.96228898E+02  0.90970617E+02  0.85863449E+02  0.80911649E+02
  0.76118752E+02  0.71487606E+02  0.67020408E+02  0.62718727E+02  0.58583544E+02
  0.54615275E+02  0.50813807E+02  0.47178520E+02  0.43708328E+02  0.40401696E+02
  0.37256679E+02  0.34270945E+02  0.31441807E+02  0.28766248E+02  0.26240954E+02
  0.23862337E+02  0.21626565E+02  0.19529589E+02  0.17567167E+02  0.15734894E+02
  0.14028222E+02  0.12442488E+02  0.10972939E+02  0.96147495E+01  0.83630488E+01
  0.72129394E+01  0.61595176E+01  0.51978927E+01  0.43232049E+01  0.35306420E+01
  0.28154554E+01  0.21729745E+01  0.15986201E+01  0.10879170E+01  0.63650486E+00
  0.24014803E+00 -0.10525526E+00 -0.40366547E+00 -0.65889502E+00 -0.87460287E+00
 -0.10542899E+01 -0.12012957E+01 -0.13187954E+01 -0.14097991E+01 -0.14771501E+01
 -0.15235256E+01 -0.15514375E+01 -0.15632338E+01 -0.15611009E+01 -0.15470669E+01
 -0.15230043E+01 -0.14906348E+01 -0.14515331E+01 -0.14071319E+01 -0.13587274E+01
 -0.13074845E+01 -0.12544426E+01 -0.12005217E+01 -0.11465284E+01 -0.10931624E+01
 -0.10410226E+01 -0.99061374E+00 -0.94235266E+00 -0.89657473E+00 -0.85354014E+00
 -0.81344019E+00 -0.77640338E+00 -0.74250134E+00 -0.71175470E+00 -0.68413864E+00
 -0.65958833E+00 -0.63800410E+00 -0.61925640E+00 -0.60319051E+00 -0.58963095E+00
 -0.57838569E+00 -0.56925004E+00 -0.56201030E+00 -0.55644712E+00 -0.55233856E+00
 -0.54946294E+00 -0.54760137E+00 -0.54654002E+00 -0.54607214E+00 -0.54599980E+00
 -0.54613548E+00 -0.54630327E+00 -0.54633998E+00 -0.54609597E+00 -0.54543578E+00
 -0.54423860E+00 -0.54239849E+00 -0.53982454E+00 -0.53644076E+00 -0.53218592E+00
 -0.52701321E+00 -0.52088977E+00 -0.51379619E+00 -0.50572585E+00 -0.49668422E+00
 -0.48668802E+00 -0.47576449E+00 -0.46395040E+00 -0.45129121E+00 -0.43784012E+00
 -0.42365710E+00 -0.40880795E+00 -0.39336339E+00 -0.37739806E+00 -0.36098968E+00
 -0.34421811E+00 -0.32716452E+00 -0.30991056E+00 -0.29253763E+00 -0.27512609E+00
 -0.25775465E+00 -0.24049968E+00 -0.22343471E+00 -0.20662988E+00 -0.19015149E+00
 -0.17406161E+00 -0.15841775E+00 -0.14327255E+00 -0.12867360E+00 -0.11466324E+00
 -0.10127847E+00 -0.88550863E-01 -0.76506553E-01 -0.65166291E-01 -0.54545502E-01
 -0.44654410E-01 -0.35498188E-01 -0.27077151E-01 -0.19386974E-01 -0.12418939E-01
 -0.61602076E-02 -0.59410920E-03  0.42995487E-02  0.85441605E-02  0.12165991E-01
  0.15193838E-01  0.17658689E-01  0.19593385E-01  0.21032271E-01  0.22010872E-01
  0.22565558E-01  0.22733232E-01  0.22551019E-01  0.22055981E-01  0.21284835E-01
  0.20273699E-01  0.19057846E-01  0.17671487E-01  0.16147568E-01  0.14517588E-01
  0.12811443E-01  0.11057284E-01  0.92814054E-02  0.75081457E-02  0.57598162E-02
  0.40566466E-02  0.24167521E-02  0.85611932E-03 -0.61138984E-03 -0.19740161E-02
 -0.32220648E-02 -0.43478532E-02 -0.53456424E-02 -0.62115587E-02 -0.69435015E-02
 -0.75410426E-02 -0.80053165E-02 -0.83389031E-02 -0.85457051E-02 -0.86308207E-02
 -0.86004127E-02 -0.84615760E-02 -0.82222051E-02 -0.78908605E-02 -0.74766384E-02
 -0.69890423E-02 -0.64378582E-02 -0.58330347E-02 -0.51845683E-02 -0.45023951E-02
 -0.37962890E-02 -0.30757673E-02 -0.23500042E-02 -0.16277525E-02 -0.91727364E-03
 -0.22627659E-03  0.43813478E-03  0.10695051E-02  0.16620626E-02  0.22107450E-02
  0.27112176E-02  0.31598826E-02  0.35538809E-02  0.38910863E-02  0.41700927E-02
  0.43901944E-02  0.45513608E-02  0.46542052E-02  0.46999484E-02  0.46903788E-02
  0.46278073E-02  0.45150202E-02  0.43552292E-02  0.41520185E-02  0.39092921E-02
  0.36312188E-02  0.33221777E-02  0.29867040E-02  0.26294350E-02  0.22550582E-02
  0.18682604E-02  0.14736791E-02  0.10758572E-02  0.67919921E-03  0.28793160E-03
 -0.93933664E-04 -0.46263207E-03 -0.81467568E-03 -0.11468783E-02 -0.14563766E-02
 -0.17406472E-02 -0.19975198E-02 -0.22251863E-02 -0.24222056E-02 -0.25875049E-02
 -0.27203775E-02 -0.28204763E-02 -0.28878047E-02 -0.29227040E-02 -0.29258381E-02
 -0.28981752E-02 -0.28409677E-02 -0.27557291E-02 -0.26442107E-02 -0.25083747E-02
 -0.23503683E-02 -0.21724950E-02 -0.19771868E-02 -0.17669752E-02 -0.15444628E-02
 -0.13122944E-02 -0.10731297E-02 -0.82961597E-03 -0.58436214E-03 -0.33991389E-03
 -0.98730445E-04  0.13683718E-03  0.36456608E-03  0.58237952E-03  0.78836290E-03
  0.98077770E-03  0.11580732E-02  0.13188958E-02  0.14620969E-02  0.15867370E-02
  0.16920895E-02  0.17776409E-02  0.18430894E-02  0.18883416E-02  0.19135070E-02
  0.19188911E-02  0.19049863E-02  0.18724616E-02  0.18221509E-02  0.17550398E-02
  0.16722516E-02  0.15750323E-02  0.14647348E-02  0.13428025E-02  0.12107528E-02
  0.10701598E-02  0.92263789E-03  0.76982424E-03  0.61336263E-03  0.45488711E-03
  0.29600642E-03  0.13828906E-03 -0.16750785E-04 -0.16766645E-03 -0.31309089E-03
 -0.45174774E-03 -0.58246115E-03 -0.70416436E-03 -0.81590702E-03 -0.91686114E-03
 -0.10063258E-02 -0.10837302E-02 -0.11486361E-02 -0.12007378E-02 -0.12398618E-02
 -0.12659651E-02 -0.12791316E-02 -0.12795682E-02 -0.12675992E-02 -0.12436603E-02
 -0.12082914E-02 -0.11621282E-02 -0.11058942E-02 -0.10403907E-02 -0.96648756E-03
 -0.88511267E-03 -0.79724172E-03 -0.70388748E-03 -0.60608913E-03 -0.50490155E-03
 -0.40138486E-03 -0.29659406E-03 -0.19156911E-03 -0.87325313E-04  0.15155716E-04
  0.11493460E-03  0.21112207E-03  0.30288616E-03  0.38945872E-03  0.47014103E-03
  0.54430875E-03  0.61141591E-03  0.67099814E-03  0.72267495E-03  0.76615127E-03
  0.80121798E-03  0.82775178E-03  0.84571409E-03  0.85514928E-03  0.85618213E-03
  0.84901453E-03  0.83392162E-03  0.81124728E-03  0.78139908E-03  0.74484280E-03
  0.70209644E-03  0.65372402E-03  0.60032897E-03  0.54254742E-03  0.48104126E-03
  0.41649120E-03  0.34958980E-03  0.28103456E-03  0.21152111E-03  0.14173671E-03
  0.72353812E-04  0.40240871E-05 -0.62627292E-04 -0.12700694E-03 -0.18855809E-03
 -0.24676505E-03 -0.30115698E-03 -0.35131135E-03 -0.39685671E-03 -0.43747493E-03
 -0.47290295E-03 -0.50293384E-03 -0.52741741E-03 -0.54626022E-03 -0.55942501E-03
 -0.56692968E-03 -0.56884573E-03 -0.56529622E-03 -0.55645332E-03 -0.54253543E-03
 -0.52380394E-03 -0.50055964E-03 -0.47313889E-03 -0.44190950E-03 -0.40726642E-03
 -0.36962730E-03 -0.32942793E-03 -0.28711761E-03 -0.24315453E-03 -0.19800113E-03
 -0.15211960E-03 -0.10596746E-03 -0.59993263E-04 -0.14632570E-04  0.29695943E-04
  0.72594057E-04  0.11368732E-03  0.15262806E-03  0.18909802E-03  0.22281073E-03
  0.25351341E-03  0.28098862E-03  0.30505541E-03  0.32557019E-03  0.34242717E-03
  0.35555843E-03  0.36493364E-03  0.37055940E-03  0.37247830E-03  0.37076755E-03
  0.36553742E-03  0.35692934E-03  0.34511377E-03  0.33028781E-03  0.31267264E-03
  0.29251080E-03  0.27006330E-03  0.24560662E-03  0.21942970E-03  0.19183076E-03
  0.16311425E-03  0.13358768E-03  0.10355862E-03  0.73331663E-04  0.43205582E-04
  0.13470545E-04 -0.15594478E-04 -0.43724159E-04 -0.70669048E-04 -0.96197609E-04
 -0.12009803E-03 -0.14217982E-03 -0.16227508E-03 -0.18023965E-03 -0.19595389E-03
 -0.20932325E-03 -0.22027855E-03 -0.22877607E-03 -0.23479732E-03 -0.23834859E-03
 -0.23946029E-03 -0.23818605E-03 -0.23460161E-03 -0.22880354E-03 -0.22090776E-03
 -0.21104794E-03 -0.19937371E-03 -0.18604885E-03 -0.17124925E-03 -0.15516093E-03
 -0.13797794E-03 -0.11990022E-03 -0.10113149E-03 -0.81877141E-04 -0.62342167E-04
 -0.42729113E-04 -0.23236141E-04 -0.40551616E-05  0.14629921E-04  0.32644847E-04
  0.49826503E-04  0.66024276E-04  0.81101256E-04  0.94935268E-04  0.10741974E-03
  0.11846439E-03  0.12799573E-03  0.13595742E-03  0.14231037E-03  0.14703277E-03
  0.15011988E-03  0.15158362E-03  0.15145212E-03  0.14976900E-03  0.14659255E-03
  0.14199485E-03  0.13606062E-03  0.12888614E-03  0.12057795E-03  0.11125156E-03
  0.10103000E-03  0.90042472E-04  0.78422824E-04  0.66308101E-04  0.53837068E-04
  0.41148748E-04  0.28380993E-04  0.15669104E-04  0.31444962E-05 -0.90665551E-05
 -0.20844095E-04 -0.32075576E-04 -0.42656849E-04 -0.52493041E-04 -0.61499324E-04
 -0.69601561E-04 -0.76736834E-04 -0.82853835E-04 -0.87913141E-04 -0.91887356E-04
 -0.94761124E-04 -0.96531024E-04 -0.97205339E-04 -0.96803713E-04 -0.95356696E-04
 -0.92905192E-04 -0.89499798E-04 -0.85200075E-04 -0.80073728E-04 -0.74195724E-04
 -0.67647352E-04 -0.60515239E-04 -0.52890326E-04 -0.44866824E-04 -0.36541157E-04
 -0.28010899E-04 -0.19373729E-04 -0.10726392E-04 -0.21637038E-05  0.62224117E-05
  0.14343838E-04  0.22117118E-04  0.29464250E-04  0.36313399E-04  0.42599544E-04
  0.48265034E-04  0.53260057E-04  0.57543022E-04  0.61080844E-04  0.63849138E-04
  0.65832316E-04  0.67023594E-04  0.67424899E-04  0.67046697E-04  0.65907726E-04
  0.64034649E-04  0.61461633E-04  0.58229850E-04  0.54386924E-04  0.49986304E-04
  0.45086602E-04  0.39750876E-04  0.34045887E-04  0.28041318E-04  0.21808992E-04
  0.15422059E-04  0.89542035E-05  0.24788392E-05 -0.39316654E-05 -0.10206747E-04
 -0.16278373E-04 -0.22081733E-04 -0.27555879E-04 -0.32644325E-04 -0.37295581E-04
 -0.41463633E-04 -0.45108354E-04 -0.48195855E-04 -0.50698752E-04 -0.52596373E-04
 -0.53874888E-04 -0.54527360E-04 -0.54553731E-04 -0.53960729E-04 -0.52761710E-04
 -0.50976431E-04 -0.48630754E-04 -0.45756303E-04 -0.42390047E-04 -0.38573848E-04
 -0.34353956E-04 -0.29780464E-04 -0.24906736E-04 -0.19788798E-04 -0.14484719E-04
 -0.90539728E-05 -0.35567907E-05  0.19464798E-05  0.73960142E-05  0.12733136E-04
  0.17900924E-04  0.22844789E-04  0.27513028E-04  0.31857336E-04  0.35833278E-04
  0.39400716E-04  0.42524188E-04  0.45173235E-04  0.47322666E-04  0.48952777E-04
  0.50049499E-04  0.50604496E-04  0.50615197E-04  0.50084771E-04  0.49022041E-04
  0.47441341E-04  0.45362321E-04  0.42809692E-04  0.39812931E-04  0.36405932E-04
  0.32626617E-04  0.28516511E-04  0.24120286E-04  0.19485269E-04  0.14660936E-04
  0.96983853E-05  0.46497972E-05 -0.43210897E-06 -0.54946210E-05 -0.10485574E-04
 -0.15353879E-04 -0.20050039E-04 -0.24526641E-04 -0.28738825E-04 -0.32644722E-04
 -0.36205854E-04 -0.39387505E-04 -0.42159042E-04 -0.44494196E-04 -0.46371298E-04
 -0.47773458E-04 -0.48688708E-04 -0.49110080E-04 -0.49035643E-04 -0.48468484E-04
 -0.47416640E-04 -0.45892980E-04 -0.43915040E-04 -0.41504812E-04 -0.38688494E-04
 -0.35496192E-04 -0.31961590E-04 -0.28121591E-04 -0.24015920E-04 -0.19686710E-04
 -0.15178062E-04 -0.10535590E-04 -0.58059593E-05 -0.10364126E-05  0.37257040E-05
  0.84334113E-05  0.13040560E-04  0.17502283E-04  0.21775429E-04  0.25818976E-04
  0.29594426E-04  0.33066158E-04  0.36201769E-04  0.38972360E-04  0.41352803E-04
  0.43321953E-04  0.44862835E-04  0.45962772E-04  0.46613487E-04  0.46811142E-04
  0.46556350E-04  0.45854136E-04  0.44713850E-04  0.43149051E-04  0.41177337E-04
  0.38820147E-04  0.36102524E-04  0.33052839E-04  0.29702498E-04  0.26085604E-04
  0.22238614E-04  0.18199959E-04  0.14009660E-04  0.97089296E-05  0.53397552E-05
  0.94449288E-06 -0.34345494E-05 -0.77555208E-05 -0.11977429E-04 -0.16060531E-04
 -0.19966708E-04 -0.23659820E-04 -0.27106041E-04 -0.30274166E-04 -0.33135894E-04
 -0.35666074E-04 -0.37842927E-04 -0.39648223E-04 -0.41067435E-04 -0.42089840E-04
 -0.42708601E-04 -0.42920790E-04 -0.42727393E-04 -0.42133261E-04 -0.41147036E-04
 -0.39781032E-04 -0.38051088E-04 -0.35976384E-04 -0.33579231E-04 -0.30884827E-04
 -0.27920992E-04 -0.24717879E-04 -0.21307664E-04 -0.17724221E-04 -0.14002781E-04
 -0.10179586E-04 -0.62915305E-05 -0.23758071E-05  0.15304554E-05  0.53905432E-05
  0.91685049E-05  0.12829487E-04  0.16340055E-04  0.19668502E-04  0.22785130E-04
  0.25662517E-04  0.28275755E-04  0.30602664E-04  0.32623977E-04  0.34323496E-04
  0.35688214E-04  0.36708410E-04  0.37377710E-04  0.37693113E-04  0.37654989E-04
  0.37267040E-04  0.36536235E-04  0.35472709E-04  0.34089637E-04  0.32403079E-04
  0.30431797E-04  0.28197052E-04  0.25722376E-04  0.23033329E-04  0.20157231E-04
  0.17122887E-04  0.13960302E-04  0.10700380E-04  0.73746239E-05  0.40148294E-05
  0.65278229E-06 -0.26800443E-05 -0.59527843E-05 -0.91354648E-05 -0.12199281E-04
 -0.15116857E-04 -0.17862488E-04 -0.20412371E-04 -0.22744804E-04 -0.24840372E-04
 -0.26682105E-04 -0.28255614E-04 -0.29549197E-04 -0.30553919E-04 -0.31263670E-04
 -0.31675186E-04 -0.31788052E-04 -0.31604670E-04 -0.31130208E-04 -0.30372516E-04
 -0.29342021E-04 -0.28051599E-04 -0.26516423E-04 -0.24753796E-04 -0.22782954E-04
 -0.20624869E-04 -0.18302023E-04 -0.15838180E-04 -0.13258144E-04 -0.10587510E-04
 -0.78524124E-05 -0.50792718E-05 -0.22945382E-05  0.47555919E-06  0.32052581E-05
  0.58695024E-05  0.84441706E-05  0.10906294E-04  0.13234258E-04  0.15407994E-04
  0.17409148E-04  0.19221231E-04  0.20829756E-04  0.22222348E-04  0.23388833E-04
  0.24321310E-04  0.25014193E-04  0.25464233E-04  0.25670526E-04  0.25634481E-04
  0.25359783E-04  0.24852326E-04  0.24120128E-04  0.23173225E-04  0.22023553E-04
  0.20684804E-04  0.19172274E-04  0.17502696E-04  0.15694064E-04  0.13765438E-04
  0.11736754E-04  0.96286154E-05  0.74620949E-05  0.52585200E-05  0.30392688E-05
  0.82556396E-06 -0.13617283E-05 -0.35022930E-05 -0.55765535E-05 -0.75658493E-05
 -0.94526019E-05 -0.11220468E-04 -0.12854481E-04 -0.14341174E-04 -0.15668686E-04
 -0.16826858E-04 -0.17807304E-04 -0.18603465E-04 -0.19210649E-04 -0.19626046E-04
 -0.19848733E-04 -0.19879648E-04 -0.19721562E-04 -0.19379017E-04 -0.18858265E-04
 -0.18167173E-04 -0.17315130E-04 -0.16312930E-04 -0.15172646E-04 -0.13907497E-04
 -0.12531697E-04 -0.11060307E-04 -0.95090715E-05 -0.78942592E-05 -0.62324933E-05
 -0.45405857E-05 -0.28353700E-05 -0.11335372E-05  0.54852476E-06  0.21948866E-05
  0.37902257E-05  0.53199666E-05  0.67704113E-05  0.81288601E-05  0.93837200E-05
  0.10524600E-04  0.11542396E-04  0.12429358E-04  0.13179144E-04  0.13786862E-04
  0.14249095E-04  0.14563910E-04  0.14730853E-04  0.14750932E-04  0.14626582E-04
  0.14361621E-04  0.13961186E-04  0.13431666E-04  0.12780614E-04  0.12016661E-04
  0.11149404E-04  0.10189303E-04  0.91475625E-05  0.80360039E-05  0.68669431E-05
  0.56530580E-05  0.44072568E-05  0.31425457E-05  0.18718972E-05  0.60812182E-06
 -0.63625842E-06 -0.18491302E-05 -0.30189041E-05 -0.41346226E-05 -0.51860603E-05
 -0.61638151E-05 -0.70593898E-05 -0.78652638E-05 -0.85749533E-05 -0.91830605E-05
 -0.96853113E-05 -0.10078580E-04 -0.10360905E-04 -0.10531488E-04 -0.10590683E-04
 -0.10539978E-04 -0.10381959E-04 -0.10120267E-04 -0.97595443E-05 -0.93053711E-05
 -0.87641926E-05 -0.81432402E-05 -0.74504444E-05 -0.66943420E-05 -0.58839789E-05
 -0.50288086E-05 -0.41385886E-05 -0.32232740E-05 -0.22929125E-05 -0.13575380E-05
 -0.42706731E-06  0.48880084E-06  0.13806833E-05  0.22396050E-05  0.30570860E-05
  0.38252221E-05  0.45367583E-05  0.51851545E-05  0.57646427E-05  0.62702760E-05
  0.66979670E-05  0.70445186E-05  0.73076433E-05  0.74859739E-05  0.75790646E-05
  0.75873814E-05  0.75122843E-05  0.73560002E-05  0.71215865E-05  0.68128875E-05
  0.64344824E-05  0.59916270E-05  0.54901887E-05  0.49365763E-05  0.43376645E-05
  0.37007154E-05  0.30332960E-05  0.23431945E-05  0.16383345E-05  0.92668952E-06
  0.21619740E-06 -0.48532332E-06 -0.11702552E-05 -0.18312602E-05 -0.24613549E-05
 -0.30539801E-05 -0.36030663E-05 -0.41030921E-05 -0.45491376E-05 -0.49369294E-05
 -0.52628798E-05 -0.55241169E-05 -0.57185080E-05 -0.58446743E-05 -0.59019977E-05
 -0.58906194E-05 -0.58114309E-05 -0.56660561E-05 -0.54568269E-05 -0.51867511E-05
 -0.48594730E-05 -0.44792285E-05 -0.40507935E-05 -0.35794273E-05 -0.30708115E-05
 -0.25309848E-05 -0.19662748E-05 -0.13832268E-05 -0.78853128E-06 -0.18895083E-06
  0.40875401E-06  0.99789741E-06  0.15719399E-05  0.21245578E-05  0.26497094E-05
  0.31416986E-05  0.35952328E-05  0.40054774E-05  0.43681043E-05  0.46793344E-05
  0.49359749E-05  0.51354486E-05  0.52758180E-05  0.53558011E-05  0.53747806E-05
  0.53328066E-05  0.52305910E-05  0.50694960E-05  0.48515151E-05  0.45792480E-05
 atomic pseudo charge-density
  0.14000000E+02  0.13985380E+02  0.13941699E+02  0.13869494E+02  0.13769638E+02
  0.13643316E+02  0.13491983E+02  0.13317323E+02  0.13121203E+02  0.12905618E+02
  0.12672645E+02  0.12424398E+02  0.12162978E+02  0.11890440E+02  0.11608764E+02
  0.11319823E+02  0.11025367E+02  0.10727013E+02  0.10426231E+02  0.10124348E+02
  0.98225436E+01  0.95218572E+01  0.92231941E+01  0.89273344E+01  0.86349422E+01
  0.83465764E+01  0.80627013E+01  0.77836967E+01  0.75098683E+01  0.72414573E+01
  0.69786489E+01  0.67215804E+01  0.64703489E+01  0.62250170E+01  0.59856193E+01
  0.57521666E+01  0.55246507E+01  0.53030480E+01  0.50873223E+01  0.48774276E+01
  0.46733103E+01  0.44749108E+01  0.42821650E+01  0.40950056E+01  0.39133625E+01
  0.37371639E+01  0.35663369E+01  0.34008073E+01  0.32405005E+01  0.30853410E+01
  0.29352530E+01  0.27901602E+01  0.26499857E+01  0.25146521E+01  0.23840812E+01
  0.22581942E+01  0.21369114E+01  0.20201522E+01  0.19078351E+01  0.17998773E+01
  0.16961951E+01  0.15967036E+01  0.15013167E+01  0.14099472E+01  0.13225067E+01
  0.12389058E+01  0.11590537E+01  0.10828591E+01  0.10102295E+01  0.94107146E+00
  0.87529107E+00  0.81279368E+00  0.75348419E+00  0.69726713E+00  0.64404682E+00
  0.59372748E+00  0.54621338E+00  0.50140902E+00  0.45921920E+00  0.41954921E+00
  0.38230498E+00  0.34739317E+00  0.31472133E+00  0.28419803E+00  0.25573297E+00
  0.22923713E+00  0.20462281E+00  0.18180383E+00  0.16069557E+00  0.14121505E+00
  0.12328108E+00  0.10681426E+00  0.91737124E-01  0.77974146E-01  0.65451833E-01
  0.54098765E-01  0.43845636E-01  0.34625292E-01  0.26372764E-01  0.19025287E-01
  0.12522323E-01  0.68055666E-02  0.18189550E-02 -0.24913339E-02 -0.61768865E-02
 -0.92870638E-02 -0.11869017E-01 -0.13967707E-01 -0.15625929E-01 -0.16884341E-01
 -0.17781493E-01 -0.18353869E-01 -0.18635920E-01 -0.18660106E-01 -0.18456947E-01
 -0.18055064E-01 -0.17481228E-01 -0.16760420E-01 -0.15915873E-01 -0.14969137E-01
 -0.13940129E-01 -0.12847193E-01 -0.11707159E-01 -0.10535401E-01 -0.93458974E-02
 -0.81512910E-02 -0.69629494E-02 -0.57910250E-02 -0.46445156E-02 -0.35313240E-02
 -0.24583173E-02 -0.14313857E-02 -0.45550062E-03  0.46522845E-03  0.13274975E-02
  0.21287531E-02  0.28671386E-02  0.35414414E-02  0.41510420E-02  0.46958642E-02
  0.51763267E-02  0.55932968E-02  0.59480449E-02  0.62422022E-02  0.64777180E-02
  0.66568206E-02  0.67819794E-02  0.68558683E-02  0.68813316E-02  0.68613513E-02
  0.67990169E-02  0.66974961E-02  0.65600079E-02  0.63897976E-02  0.61901135E-02
  0.59641847E-02  0.57152019E-02  0.54462990E-02  0.51605366E-02  0.48608871E-02
  0.45502216E-02  0.42312983E-02  0.39067518E-02  0.35790851E-02  0.32506615E-02
  0.29236990E-02  0.26002655E-02  0.22822752E-02  0.19714861E-02  0.16694989E-02
  0.13777566E-02  0.10975451E-02  0.82999507E-03  0.57608407E-03  0.33663990E-03
  0.11234439E-03 -0.96262021E-04 -0.28877522E-03 -0.46492178E-03 -0.62455295E-03
 -0.76763816E-03 -0.89425823E-03 -0.10045983E-02 -0.10989407E-02 -0.11776573E-02
 -0.12412018E-02 -0.12901027E-02 -0.13249549E-02 -0.13464126E-02 -0.13551814E-02
 -0.13520112E-02 -0.13376882E-02 -0.13130288E-02 -0.12788714E-02 -0.12360709E-02
 -0.11854914E-02 -0.11280003E-02 -0.10644626E-02 -0.99573525E-03 -0.92266195E-03
 -0.84606832E-03 -0.76675745E-03 -0.68550583E-03 -0.60305956E-03 -0.52013110E-03
 -0.43739626E-03 -0.35549162E-03 -0.27501240E-03 -0.19651057E-03 -0.12049342E-03
 -0.47422484E-04  0.22287237E-04  0.88267680E-04  0.15019781E-03  0.20780341E-03
  0.26085657E-03  0.30917491E-03  0.35262051E-03  0.39109868E-03  0.42455642E-03
  0.45298072E-03  0.47639670E-03  0.49486554E-03  0.50848227E-03  0.51737351E-03
  0.52169502E-03  0.52162920E-03  0.51738257E-03  0.50918311E-03  0.49727767E-03
  0.48192932E-03  0.46341474E-03  0.44202156E-03  0.41804589E-03  0.39178973E-03
  0.36355860E-03  0.33365914E-03  0.30239689E-03  0.27007410E-03  0.23698773E-03
  0.20342754E-03  0.16967426E-03  0.13599800E-03  0.10265672E-03  0.69894875E-04
  0.37942236E-04  0.70128119E-05 -0.22696038E-04 -0.51004350E-04 -0.77750150E-04
 -0.10278990E-03 -0.12599878E-03 -0.14727087E-03 -0.16651914E-03 -0.18367532E-03
 -0.19868969E-03 -0.21153067E-03 -0.22218438E-03 -0.23065399E-03 -0.23695910E-03
 -0.24113492E-03 -0.24323139E-03 -0.24331231E-03 -0.24145428E-03 -0.23774570E-03
 -0.23228563E-03 -0.22518270E-03 -0.21655389E-03 -0.20652344E-03 -0.19522158E-03
 -0.18278341E-03 -0.16934766E-03 -0.15505560E-03 -0.14004982E-03 -0.12447320E-03
 -0.10846779E-03 -0.92173782E-04 -0.75728573E-04 -0.59265800E-04 -0.42914494E-04
 -0.26798278E-04 -0.11034634E-04  0.42657645E-05  0.18999641E-04  0.33071635E-04
  0.46394743E-04  0.58890685E-04  0.70490197E-04  0.81133241E-04  0.90769149E-04
  0.99356688E-04  0.10686405E-03  0.11326879E-03  0.11855767E-03  0.12272647E-03
  0.12577971E-03  0.12773034E-03  0.12859935E-03  0.12841540E-03  0.12721429E-03
  0.12503850E-03  0.12193665E-03  0.11796295E-03  0.11317656E-03  0.10764105E-03
  0.10142374E-03  0.94595085E-04  0.87228040E-04  0.79397427E-04  0.71179311E-04
  0.62650383E-04  0.53887359E-04  0.44966392E-04  0.35962513E-04  0.26949092E-04
  0.17997328E-04  0.91757757E-05  0.54989783E-06 -0.78183396E-05 -0.15870837E-04
 -0.23553688E-04 -0.30817472E-04 -0.37617494E-04 -0.43913992E-04 -0.49672292E-04
 -0.54862930E-04 -0.59461724E-04 -0.63449803E-04 -0.66813605E-04 -0.69544820E-04
 -0.71640308E-04 -0.73101976E-04 -0.73936613E-04 -0.74155705E-04 -0.73775212E-04
 -0.72815317E-04 -0.71300151E-04 -0.69257500E-04 -0.66718485E-04 -0.63717230E-04
 -0.60290514E-04 -0.56477415E-04 -0.52318946E-04 -0.47857679E-04 -0.43137380E-04
 -0.38202634E-04 -0.33098477E-04 -0.27870037E-04 -0.22562182E-04 -0.17219177E-04
 -0.11884361E-04 -0.65998325E-05 -0.14061569E-05  0.36579060E-05  0.85556564E-05
  0.13252684E-04  0.17717074E-04  0.21919593E-04  0.25833839E-04  0.29436379E-04
  0.32706851E-04  0.35628041E-04  0.38185937E-04  0.40369754E-04  0.42171936E-04
  0.43588130E-04  0.44617136E-04  0.45260840E-04  0.45524115E-04  0.45414710E-04
  0.44943116E-04  0.44122413E-04  0.42968100E-04  0.41497919E-04  0.39731655E-04
  0.37690927E-04  0.35398981E-04  0.32880459E-04  0.30161177E-04  0.27267889E-04
  0.24228057E-04  0.21069616E-04  0.17820746E-04  0.14509642E-04  0.11164291E-04
  0.78122626E-05  0.44804983E-05  0.11951164E-05 -0.20187734E-05 -0.51372425E-05
 -0.81377035E-05 -0.10999055E-04 -0.13701813E-04 -0.16228223E-04 -0.18562361E-04
 -0.20690213E-04 -0.22599740E-04 -0.24280928E-04 -0.25725815E-04 -0.26928509E-04
 -0.27885182E-04 -0.28594054E-04 -0.29055356E-04 -0.29271284E-04 -0.29245934E-04
 -0.28985223E-04 -0.28496804E-04 -0.27789962E-04 -0.26875501E-04 -0.25765630E-04
 -0.24473824E-04 -0.23014698E-04 -0.21403858E-04 -0.19657757E-04 -0.17793545E-04
 -0.15828920E-04 -0.13781970E-04 -0.11671024E-04 -0.95145006E-05 -0.73307613E-05
 -0.51379637E-05 -0.29539238E-05 -0.79598201E-06  0.13191238E-05  0.33753774E-05
  0.53575950E-05  0.72515274E-05  0.90439519E-05  0.10722754E-04  0.12277001E-04
  0.13696998E-04  0.14974343E-04  0.16101961E-04  0.17074131E-04  0.17886504E-04
  0.18536106E-04  0.19021330E-04  0.19341920E-04  0.19498943E-04  0.19494753E-04
  0.19332940E-04  0.19018280E-04  0.18556667E-04  0.17955040E-04  0.17221312E-04
  0.16364279E-04  0.15393534E-04  0.14319372E-04  0.13152694E-04  0.11904905E-04
  0.10587814E-04  0.92135320E-05  0.77943647E-05  0.63427144E-05  0.48709772E-05
  0.33914440E-05  0.19162052E-05  0.45705826E-06 -0.97458060E-06 -0.23677590E-05
 -0.37120665E-05 -0.49977057E-05 -0.62155582E-05 -0.73572429E-05 -0.84151670E-05
 -0.93825709E-05 -0.10253564E-04 -0.11023154E-04 -0.11687268E-04 -0.12242766E-04
 -0.12687444E-04 -0.13020037E-04 -0.13240206E-04 -0.13348522E-04 -0.13346442E-04
 -0.13236282E-04 -0.13021176E-04 -0.12705037E-04 -0.12292510E-04 -0.11788918E-04
 -0.11200207E-04 -0.10532882E-04 -0.97939496E-05 -0.89908453E-05 -0.81313693E-05
 -0.72236146E-05 -0.62758973E-05 -0.52966842E-05 -0.42945231E-05 -0.32779716E-05
 -0.22555293E-05 -0.12355700E-05 -0.22627764E-06  0.76441566E-06  0.17288880E-05
  0.26598825E-05  0.35505585E-05  0.43945373E-05  0.51859448E-05  0.59194479E-05
  0.65902867E-05  0.71943011E-05  0.77279521E-05  0.81883378E-05  0.85732040E-05
  0.88809494E-05  0.91106250E-05  0.92619296E-05  0.93351983E-05  0.93313880E-05
  0.92520568E-05  0.90993401E-05  0.88759215E-05  0.85850007E-05  0.82302579E-05
  0.78158140E-05  0.73461897E-05  0.68262608E-05  0.62612123E-05  0.56564905E-05
  0.50177545E-05  0.43508262E-05  0.36616407E-05  0.29561963E-05  0.22405051E-05
  0.15205444E-05  0.80220977E-06  0.91268724E-07 -0.60668261E-06 -0.12862613E-05
 -0.19423366E-05 -0.25700663E-05 -0.31649301E-05 -0.37227592E-05 -0.42397639E-05
 -0.47125556E-05 -0.51381670E-05 -0.55140677E-05 -0.58381759E-05 -0.61088664E-05
 -0.63249754E-05 -0.64858003E-05 -0.65910971E-05 -0.66410732E-05 -0.66363771E-05
 -0.65780851E-05 -0.64676840E-05 -0.63070519E-05 -0.60984351E-05 -0.58444234E-05
 -0.55479229E-05 -0.52121263E-05 -0.48404819E-05 -0.44366615E-05 -0.40045262E-05
 -0.35480921E-05 -0.30714952E-05 -0.25789555E-05 -0.20747421E-05 -0.15631379E-05
 -0.10484048E-05 -0.53474986E-06 -0.26292857E-07  0.47296531E-06  0.95917245E-06
  0.14286532E-05  0.18779351E-05  0.23037728E-05  0.27031697E-05  0.30733974E-05
  0.34120127E-05  0.37168716E-05  0.39861410E-05  0.42183078E-05  0.44121850E-05
  0.45669148E-05  0.46819700E-05  0.47571517E-05  0.47925846E-05  0.47887106E-05
  0.47462791E-05  0.46663350E-05  0.45502054E-05  0.43994835E-05  0.42160109E-05
  0.40018585E-05  0.37593055E-05  0.34908172E-05  0.31990223E-05  0.28866884E-05
  0.25566975E-05  0.22120210E-05  0.18556939E-05  0.14907896E-05  0.11203948E-05
  0.74758402E-06  0.37539574E-06  0.68085208E-08 -0.35528170E-06 -0.70808325E-06
 -0.10489291E-05 -0.13752962E-05 -0.16848224E-05 -0.19753232E-05 -0.22448056E-05
 -0.24914805E-05 -0.27137734E-05 -0.29103333E-05 -0.30800391E-05 -0.32220047E-05
 -0.33355819E-05 -0.34203610E-05 -0.34761702E-05 -0.35030723E-05 -0.35013602E-05
 -0.34715506E-05 -0.34143755E-05 -0.33307730E-05 -0.32218757E-05 -0.30889985E-05
 -0.29336247E-05 -0.27573913E-05 -0.25620729E-05 -0.23495659E-05 -0.21218701E-05
 -0.18810721E-05 -0.16293261E-05 -0.13688362E-05 -0.11018379E-05 -0.83057943E-06
 -0.55730390E-06 -0.28423140E-06 -0.13541790E-07  0.25264198E-06  0.51226975E-06
  0.76337920E-06  0.10041099E-05  0.12327164E-05  0.14475799E-05  0.16472192E-05
  0.18303000E-05  0.19956427E-05  0.21422294E-05  0.22692090E-05  0.23759011E-05
  0.24617985E-05  0.25265681E-05  0.25700509E-05  0.25922597E-05  0.25933764E-05
  0.25737476E-05  0.25338789E-05  0.24744282E-05  0.23961981E-05  0.23001267E-05
  0.21872780E-05  0.20588313E-05  0.19160700E-05  0.17603693E-05  0.15931844E-05
  0.14160367E-05  0.12305016E-05  0.10381943E-05  0.84075688E-06  0.63984459E-06
  0.43711259E-06  0.23420287E-06  0.32731473E-07 -0.16572384E-06 -0.35963544E-06
 -0.54753702E-06 -0.72803421E-06 -0.89981435E-06 -0.10616555E-05 -0.12124347E-05
 -0.13511348E-05 -0.14768513E-05 -0.15887972E-05 -0.16863074E-05 -0.17688419E-05
 -0.18359879E-05 -0.18874613E-05 -0.19231064E-05 -0.19428951E-05 -0.19469254E-05
 -0.19354179E-05 -0.19087127E-05 -0.18672643E-05 -0.18116364E-05 -0.17424957E-05
 -0.16606045E-05 -0.15668139E-05 -0.14620550E-05 -0.13473308E-05 -0.12237066E-05
 -0.10923010E-05 -0.95427628E-06 -0.81082814E-06 -0.66317619E-06 -0.51255379E-06
 -0.36019815E-06 -0.20734058E-06 -0.55196874E-07  0.95041949E-07  0.24221863E-06
  0.38521821E-06  0.52297609E-06  0.65448561E-06  0.77880503E-06  0.89506384E-06
  0.10024685E-05  0.11003076E-05  0.11879557E-05  0.12648774E-05  0.13306298E-05
  0.13848647E-05  0.14273297E-05  0.14578688E-05  0.14764219E-05  0.14830243E-05
  0.14778044E-05  0.14609813E-05  0.14328622E-05  0.13938381E-05  0.13443797E-05
  0.12850323E-05  0.12164108E-05  0.11391934E-05  0.10541156E-05  0.96196342E-06
  0.86356670E-06  0.75979173E-06  0.65153408E-06  0.53971111E-06  0.42525452E-06
  0.30910280E-06  0.19219388E-06  0.75457780E-07 -0.40190537E-07 -0.15385805E-06
 -0.26468035E-06 -0.37182792E-06 -0.47451213E-06 -0.57199075E-06 -0.66357307E-06
 -0.74862452E-06 -0.82657081E-06 -0.89690150E-06 -0.95917306E-06 -0.10130114E-05
 -0.10581136E-05 -0.10942495E-05 -0.11212624E-05 -0.11390688E-05 -0.11476586E-05
 -0.11470939E-05 -0.11375073E-05 -0.11191000E-05 -0.10921394E-05 -0.10569559E-05
 -0.10139394E-05 -0.96353552E-06 -0.90624152E-06 -0.84260138E-06 -0.77320111E-06
 -0.69866357E-06 -0.61964311E-06 -0.53682006E-06 -0.45089506E-06 -0.36258337E-06
 -0.27260908E-06 -0.18169939E-06 -0.90578889E-07  0.35993211E-10  0.89442476E-07
  0.17695668E-06  0.26191868E-06  0.34369732E-06  0.42169468E-06  0.49535034E-06
  0.56414516E-06  0.62760479E-06  0.68530274E-06  0.73686308E-06  0.78196263E-06
  0.82033285E-06  0.85176112E-06  0.87609173E-06  0.89322629E-06  0.90312375E-06
  0.90580001E-06  0.90132701E-06  0.88983150E-06  0.87149328E-06  0.84654319E-06
  0.81526063E-06  0.77797077E-06  0.73504147E-06  0.68687984E-06  0.63392865E-06
  0.57666236E-06  0.51558314E-06  0.45121652E-06  0.38410710E-06  0.31481407E-06
  0.24390666E-06  0.17195962E-06  0.99548700E-07  0.27246163E-07 -0.44383621E-07
 -0.11478844E-06 -0.18343241E-06 -0.24979986E-06 -0.31339920E-06 -0.37376633E-06
 -0.43046797E-06 -0.48310467E-06 -0.53131344E-06 -0.57477017E-06 -0.61319167E-06
 -0.64633740E-06 -0.67401078E-06 -0.69606026E-06 -0.71237991E-06 -0.72290971E-06
 -0.72763552E-06 -0.72658859E-06 -0.71984485E-06 -0.70752373E-06 -0.68978679E-06
 -0.66683595E-06 -0.63891143E-06 -0.60628950E-06 -0.56927987E-06 -0.52822293E-06
 -0.48348675E-06 -0.43546388E-06 -0.38456808E-06 -0.33123080E-06 -0.27589768E-06
 -0.21902488E-06 -0.16107546E-06 -0.10251569E-06 -0.43811365E-07  0.14575778E-07
  0.72191624E-07  0.12859312E-06  0.18335162E-06  0.23605603E-06  0.28631582E-06
  0.33376389E-06  0.37805909E-06  0.41888866E-06  0.45597034E-06  0.48905423E-06
  0.51792439E-06  0.54240019E-06  0.56233728E-06  0.57762841E-06  0.58820378E-06
  0.59403127E-06  0.59511625E-06  0.59150115E-06  0.58326474E-06  0.57052114E-06
  0.55341857E-06  0.53213780E-06  0.50689045E-06  0.47791698E-06  0.44548453E-06
  0.40988456E-06  0.37143033E-06  0.33045418E-06  0.28730480E-06  0.24234433E-06
  0.19594533E-06  0.14848783E-06  0.10035626E-06  0.51936366E-07  0.36122364E-08
 -0.44236730E-07 -0.91238732E-07 -0.13703240E-06 -0.18126951E-06 -0.22361761E-06
 -0.26376243E-06 -0.30141018E-06 -0.33628965E-06 -0.36815410E-06 -0.39678297E-06
 -0.42198333E-06 -0.44359114E-06 -0.46147222E-06 -0.47552305E-06 -0.48567127E-06
 -0.49187592E-06 -0.49412749E-06 -0.49244766E-06 -0.48688884E-06 -0.47753349E-06
 -0.46449313E-06 -0.44790721E-06 -0.42794176E-06 -0.40478782E-06 -0.37865970E-06
 -0.34979305E-06 -0.31844286E-06 -0.28488122E-06 -0.24939504E-06 -0.21228365E-06
 -0.17385634E-06 -0.13442981E-06 -0.94325604E-07 -0.53867564E-07 -0.13379231E-07
  0.26818693E-07  0.66410846E-07  0.10508964E-06  0.14255763E-06  0.17852973E-06
  0.21273540E-06  0.24492058E-06  0.27484962E-06  0.30230690E-06  0.32709839E-06
  0.34905297E-06  0.36802359E-06  0.38388818E-06  0.39655040E-06  0.40594017E-06
  0.41201399E-06  0.41475503E-06  0.41417302E-06  0.41030393E-06  0.40320946E-06
  0.39297629E-06  0.37971521E-06  0.36355997E-06  0.34466605E-06  0.32320923E-06
  0.29938399E-06  0.27340181E-06  0.24548935E-06  0.21588651E-06  0.18484441E-06
  0.15262327E-06  0.11949032E-06  0.85717560E-07  0.51579596E-07  0.17351421E-07
 -0.16693767E-07 -0.50286716E-07 -0.83164226E-07 -0.11507118E-06 -0.14576250E-06
 -0.17500500E-06 -0.20257915E-06 -0.22828067E-06 -0.25192203E-06 -0.27333381E-06
 -0.29236584E-06 -0.30888829E-06 -0.32279245E-06 -0.33399146E-06 -0.34242077E-06
 -0.34803850E-06 -0.35082554E-06 -0.35078548E-06 -0.34794445E-06 -0.34235065E-06
 -0.33407380E-06 -0.32320439E-06 -0.30985277E-06 -0.29414812E-06 -0.27623721E-06
 -0.25628313E-06 -0.23446380E-06 -0.21097044E-06 -0.18600593E-06 -0.15978310E-06
 -0.13252290E-06 -0.10445262E-06 -0.75803988E-07 -0.46811277E-07 -0.17709428E-07
  0.11267840E-07  0.39889889E-07  0.67930979E-07  0.95172024E-07  0.12140229E-06
  0.14642102E-06  0.17003890E-06  0.19207957E-06  0.21238081E-06  0.23079580E-06
  0.24719411E-06  0.26146263E-06  0.27350629E-06  0.28324871E-06  0.29063259E-06
   15.1178079086314      T
 Non local Part
           0           2   1.35730237994786     
  -26.3185508863909       -3.05405851264927       -3.05405851264927     
   4.33688077237185     
 Reciprocal Space Part
  0.33626070E+01  0.33630343E+01  0.33642779E+01  0.33662232E+01  0.33686819E+01
  0.33713943E+01  0.33740346E+01  0.33762158E+01  0.33774969E+01  0.33773902E+01
  0.33753701E+01  0.33708827E+01  0.33633551E+01  0.33522070E+01  0.33368608E+01
  0.33167529E+01  0.32913637E+01  0.32601353E+01  0.32226682E+01  0.31785456E+01
  0.31274354E+01  0.30690805E+01  0.30033064E+01  0.29300268E+01  0.28492496E+01
  0.27610794E+01  0.26657201E+01  0.25634750E+01  0.24547456E+01  0.23400280E+01
  0.22199092E+01  0.20950739E+01  0.19662070E+01  0.18342206E+01  0.16999136E+01
  0.15642177E+01  0.14280775E+01  0.12924550E+01  0.11583163E+01  0.10266169E+01
  0.89828749E+00  0.77422019E+00  0.65525501E+00  0.54216732E+00  0.43565624E+00
  0.33633448E+00  0.24469375E+00  0.16122315E+00  0.86181018E-01  0.19724221E-01
 -0.38004584E-01 -0.87052082E-01 -0.12755582E+00 -0.15975829E+00 -0.18400062E+00
 -0.20071459E+00 -0.21041313E+00 -0.21367951E+00 -0.21115542E+00 -0.20352830E+00
 -0.19151799E+00 -0.17583219E+00 -0.15729385E+00 -0.13659144E+00 -0.11443995E+00
 -0.91488552E-01 -0.68430181E-01 -0.45833329E-01 -0.24223912E-01 -0.40601833E-02
  0.14272214E-01  0.30463485E-01  0.44281182E-01  0.55569998E-01  0.64249911E-01
  0.70312780E-01  0.73783717E-01  0.74863087E-01  0.73678513E-01  0.70449104E-01
  0.65431237E-01  0.58879461E-01  0.51147461E-01  0.42530926E-01  0.33345006E-01
  0.23897555E-01  0.14481452E-01  0.53677390E-02 -0.32002669E-02 -0.11011789E-01
 -0.17892267E-01 -0.23670789E-01 -0.28331647E-01 -0.31774869E-01 -0.33983526E-01
 -0.34977872E-01 -0.34812456E-01 -0.33572424E-01 -0.31333133E-01 -0.28292828E-01
 Real Space Part
  0.78982377E+01  0.78942258E+01  0.78821968E+01  0.78621724E+01  0.78341880E+01
  0.77982934E+01  0.77545524E+01  0.77030428E+01  0.76438563E+01  0.75770982E+01
  0.75028873E+01  0.74213558E+01  0.73326491E+01  0.72369254E+01  0.71343555E+01
  0.70251227E+01  0.69094225E+01  0.67874621E+01  0.66594601E+01  0.65256466E+01
  0.63862623E+01  0.62415586E+01  0.60917969E+01  0.59372487E+01  0.57781946E+01
  0.56149245E+01  0.54477369E+01  0.52769386E+01  0.51028444E+01  0.49257764E+01
  0.47460640E+01  0.45640430E+01  0.43800558E+01  0.41944503E+01  0.40075800E+01
  0.38198031E+01  0.36314824E+01  0.34429845E+01  0.32546797E+01  0.30669409E+01
  0.28801435E+01  0.26946646E+01  0.25108825E+01  0.23291758E+01  0.21499229E+01
  0.19735011E+01  0.18002857E+01  0.16306493E+01  0.14649606E+01  0.13035835E+01
  0.11468758E+01  0.99518818E+00  0.84886257E+00  0.70823099E+00  0.57361389E+00
  0.44531853E+00  0.32363734E+00  0.20884600E+00  0.10120163E+00  0.94075292E-03
 -0.91722683E-01 -0.17659942E+00 -0.25352697E+00 -0.32237173E+00 -0.38303104E+00
 -0.43543521E+00 -0.47954942E+00 -0.51537554E+00 -0.54295371E+00 -0.56236379E+00
 -0.57372652E+00 -0.57720435E+00 -0.57300206E+00 -0.56136685E+00 -0.54258818E+00
 -0.51699719E+00 -0.48496555E+00 -0.44690391E+00 -0.40326009E+00 -0.35451770E+00
 -0.30119916E+00 -0.24379290E+00 -0.18227572E+00 -0.12889566E+00 -0.83388345E-01
 -0.42279405E-01 -0.54919498E-02  0.26941328E-01  0.55087003E-01  0.78513952E-01
  0.97730215E-01  0.91123042E-01  0.83934909E-01  0.74474899E-01  0.63294521E-01
  0.50494450E-01  0.36184787E-01  0.20839825E-01  0.25942249E-02  0.40219072E-16
 Reciprocal Space Part
  0.17603324E+02  0.17537881E+02  0.17342297E+02  0.17018801E+02  0.16571071E+02
  0.16004191E+02  0.15324581E+02  0.14539913E+02  0.13659008E+02  0.12691722E+02
  0.11648818E+02  0.10541818E+02  0.93828561E+01  0.81845204E+01  0.69596846E+01
  0.57213423E+01  0.44824380E+01  0.32556996E+01  0.20534758E+01  0.88757878E+00
 -0.23086373E+00 -0.12915458E+01 -0.22851081E+01 -0.32032472E+01 -0.40388101E+01
 -0.47858692E+01 -0.54397799E+01 -0.59972182E+01 -0.64561981E+01 -0.68160685E+01
 -0.70774905E+01 -0.72423949E+01 -0.73139207E+01 -0.72963365E+01 -0.71949449E+01
 -0.70159733E+01 -0.67664523E+01 -0.64540827E+01 -0.60870964E+01 -0.56741103E+01
 -0.52239790E+01 -0.47456460E+01 -0.42479989E+01 -0.37397279E+01 -0.32291940E+01
 -0.27243048E+01 -0.22324037E+01 -0.17601499E+01 -0.13135459E+01 -0.89765118E+00
 -0.51675304E+00 -0.17422507E+00  0.12746455E+00  0.38674926E+00  0.60294342E+00
  0.77620553E+00  0.90748681E+00  0.99846644E+00  0.10514754E+01  0.10694108E+01
  0.10556428E+01  0.10139166E+01  0.94825110E+00  0.86283743E+00  0.76193885E+00
  0.64979445E+00  0.53052851E+00  0.40806732E+00  0.28606503E+00  0.16783975E+00
  0.56320959E-01 -0.45991189E-01 -0.13705412E+00 -0.21529869E+00 -0.27963289E+00
 -0.32943369E+00 -0.36452813E+00 -0.38516436E+00 -0.39192110E+00 -0.38592733E+00
 -0.36828228E+00 -0.34052965E+00 -0.30433540E+00 -0.26148207E+00 -0.21381082E+00
 -0.16316550E+00 -0.11134018E+00 -0.60031371E-01 -0.10795917E-01  0.34984573E-01
  0.76132154E-01  0.11169344E+00  0.14095279E+00  0.16343785E+00  0.17889568E+00
  0.18739411E+00  0.18908642E+00  0.18441100E+00  0.17395599E+00  0.15845251E+00
 Real Space Part
 -0.21303335E+02 -0.21286093E+02 -0.21234407E+02 -0.21148394E+02 -0.21028248E+02
 -0.20874242E+02 -0.20686726E+02 -0.20466126E+02 -0.20212943E+02 -0.19927754E+02
 -0.19611210E+02 -0.19264034E+02 -0.18887020E+02 -0.18481034E+02 -0.18047009E+02
 -0.17585946E+02 -0.17098911E+02 -0.16587033E+02 -0.16051503E+02 -0.15493571E+02
 -0.14914547E+02 -0.14315792E+02 -0.13698722E+02 -0.13064803E+02 -0.12415547E+02
 -0.11752514E+02 -0.11077303E+02 -0.10391554E+02 -0.96969403E+01 -0.89951717E+01
 -0.82879853E+01 -0.75771447E+01 -0.68644363E+01 -0.61516652E+01 -0.54406518E+01
 -0.47332272E+01 -0.40312294E+01 -0.33364991E+01 -0.26508748E+01 -0.19761880E+01
 -0.13142588E+01 -0.66688993E+00 -0.35862021E-01  0.57707254E+00  0.11701954E+01
  0.17418282E+01  0.22903397E+01  0.28141517E+01  0.33117466E+01  0.37816745E+01
  0.42225607E+01  0.46331135E+01  0.50121323E+01  0.53585153E+01  0.56712681E+01
  0.59495119E+01  0.61924919E+01  0.63995854E+01  0.65703097E+01  0.67043304E+01
  0.68014685E+01  0.68617070E+01  0.68851978E+01  0.68722669E+01  0.68234187E+01
  0.67393399E+01  0.66209018E+01  0.64691607E+01  0.62853578E+01  0.60709169E+01
  0.58274403E+01  0.55567035E+01  0.52606469E+01  0.49413670E+01  0.46011047E+01
  0.42422325E+01  0.38672395E+01  0.34787146E+01  0.30793294E+01  0.26718230E+01
  0.22590020E+01  0.18434761E+01  0.14259703E+01  0.10502478E+01  0.71599271E+00
  0.41150254E+00  0.13691309E+00 -0.10740456E+00 -0.32164180E+00 -0.50226834E+00
 -0.65278561E+00 -0.61147779E+00 -0.56663745E+00 -0.50539710E+00 -0.43166016E+00
 -0.34599170E+00 -0.24904901E+00 -0.14405640E+00 -0.17983622E-01 -0.27884263E-15
 Non local Part
           1           2   1.35730237994786     
   9.39456118532724       -16.8325868217745       -16.8325868217745     
   14.6123281754821     
 Reciprocal Space Part
  0.00000000E+00  0.27753902E+00  0.55415680E+00  0.82892241E+00  0.11008860E+01
  0.13690708E+01  0.16324662E+01  0.18900233E+01  0.21406523E+01  0.23832228E+01
  0.26165664E+01  0.28394829E+01  0.30507490E+01  0.32491294E+01  0.34333915E+01
  0.36023216E+01  0.37547439E+01  0.38895401E+01  0.40056713E+01  0.41021990E+01
  0.41783076E+01  0.42333251E+01  0.42667428E+01  0.42782334E+01  0.42676666E+01
  0.42351214E+01  0.41808959E+01  0.41055122E+01  0.40097179E+01  0.38944837E+01
  0.37609963E+01  0.36106465E+01  0.34450145E+01  0.32658501E+01  0.30750497E+01
  0.28746304E+01  0.26667013E+01  0.24534324E+01  0.22370230E+01  0.20196680E+01
  0.18035256E+01  0.15906845E+01  0.13831327E+01  0.11827288E+01  0.99117536E+00
  0.80999511E+00  0.64051152E+00  0.48383275E+00  0.34084002E+00  0.21218048E+00
  0.98264525E-01 -0.73234017E-03 -0.84863245E-01 -0.15439955E+00 -0.20981657E+00
 -0.25177590E+00 -0.28110464E+00 -0.29877229E+00 -0.30586565E+00 -0.30356249E+00
 -0.29310450E+00 -0.27577019E+00 -0.25284830E+00 -0.22561236E+00 -0.19529677E+00
 -0.16307502E+00 -0.13004042E+00 -0.97189503E-01 -0.65408665E-01 -0.35463857E-01
 -0.79936634E-02  0.16494354E-01  0.37624100E-01  0.55148338E-01  0.68943261E-01
  0.79000524E-01  0.85417075E-01  0.88383162E-01  0.88168921E-01  0.85109959E-01
  0.79592360E-01  0.72037538E-01  0.62887316E-01  0.52589629E-01  0.41585161E-01
  0.30295235E-01  0.19111165E-01  0.83852963E-02 -0.15761688E-02 -0.10518455E-01
 -0.18241609E-01 -0.24602025E-01 -0.29512198E-01 -0.32938821E-01 -0.34899410E-01
 -0.35457640E-01 -0.34717635E-01 -0.32817438E-01 -0.29921926E-01 -0.26215415E-01
 Real Space Part
  0.00000000E+00  0.26447160E+00  0.52836172E+00  0.79109008E+00  0.10520787E+01
  0.13107533E+01  0.15665441E+01  0.18188875E+01  0.20672267E+01  0.23110132E+01
  0.25497082E+01  0.27827832E+01  0.30097215E+01  0.32300194E+01  0.34431871E+01
  0.36487501E+01  0.38462503E+01  0.40352470E+01  0.42153179E+01  0.43860606E+01
  0.45470935E+01  0.46980566E+01  0.48386132E+01  0.49684503E+01  0.50872800E+01
  0.51948404E+01  0.52908968E+01  0.53752423E+01  0.54476991E+01  0.55081194E+01
  0.55563858E+01  0.55924131E+01  0.56161482E+01  0.56275715E+01  0.56266974E+01
  0.56135750E+01  0.55882890E+01  0.55509600E+01  0.55017454E+01  0.54408396E+01
  0.53684745E+01  0.52849199E+01  0.51904838E+01  0.50855123E+01  0.49703900E+01
  0.48455398E+01  0.47114223E+01  0.45685363E+01  0.44174173E+01  0.42586378E+01
  0.40928054E+01  0.39205626E+01  0.37425849E+01  0.35595793E+01  0.33722826E+01
  0.31814593E+01  0.29878986E+01  0.27924122E+01  0.25958307E+01  0.23990004E+01
  0.22027790E+01  0.20080316E+01  0.18156259E+01  0.16264268E+01  0.14412915E+01
  0.12610631E+01  0.10865646E+01  0.91859241E+00  0.75790950E+00  0.60523837E+00
  0.46125388E+00  0.32657597E+00  0.20176229E+00  0.87301056E-01 -0.16396073E-01
 -0.10900093E+00 -0.19027520E+00 -0.26007648E+00 -0.31836402E+00 -0.36520328E+00
 -0.40077039E+00 -0.42535556E+00 -0.43936531E+00 -0.44332486E+00 -0.43787793E+00
 -0.42378775E+00 -0.40193469E+00 -0.37331553E+00 -0.33903937E+00 -0.30032482E+00
 -0.25849499E+00 -0.21497202E+00 -0.17127209E+00 -0.12899768E+00 -0.89831256E-01
 -0.55529894E-01 -0.27914859E-01 -0.88081387E-02 -0.46721598E-03 -0.66881051E-17
 Reciprocal Space Part
  0.00000000E+00  0.70968956E+00  0.14062108E+01  0.20766558E+01  0.27086325E+01
  0.32905079E+01  0.38116356E+01  0.42625617E+01  0.46352053E+01  0.49230088E+01
  0.51210564E+01  0.52261573E+01  0.52368924E+01  0.51536237E+01  0.49784674E+01
  0.47152299E+01  0.43693104E+01  0.39475715E+01  0.34581810E+01  0.29104299E+01
  0.23145289E+01  0.16813907E+01  0.10224005E+01  0.34918202E+00 -0.32663703E+00
 -0.99365444E+00 -0.16409131E+01 -0.22581060E+01 -0.28357628E+01 -0.33654140E+01
 -0.38397294E+01 -0.42526294E+01 -0.45993664E+01 -0.48765757E+01 -0.50822958E+01
 -0.52159582E+01 -0.52783479E+01 -0.52715373E+01 -0.51987936E+01 -0.50644655E+01
 -0.48738502E+01 -0.46330454E+01 -0.43487898E+01 -0.40282966E+01 -0.36790836E+01
 -0.33088035E+01 -0.29250800E+01 -0.25353505E+01 -0.21467212E+01 -0.17658365E+01
 -0.13987640E+01 -0.10508997E+01 -0.72689131E+00 -0.43058402E+00 -0.16498625E+00
  0.67743209E-01  0.26628805E+00  0.43014828E+00  0.55959672E+00  0.65562003E+00
  0.71984661E+00  0.75446369E+00  0.76212646E+00  0.74586166E+00  0.70896849E+00
  0.65491941E+00  0.58726335E+00  0.50953355E+00  0.42516210E+00  0.33740313E+00
  0.24926570E+00  0.16345799E+00  0.82343091E-01  0.79071544E-02 -0.58260315E-01
 -0.11497412E+00 -0.16144970E+00 -0.19728885E+00 -0.22245610E+00 -0.23724692E+00
 -0.24224915E+00 -0.23829937E+00 -0.22643558E+00 -0.20784793E+00 -0.18382895E+00
 -0.15572476E+00 -0.12488870E+00 -0.92638325E-01 -0.60217067E-01 -0.28761117E-01
  0.72769754E-03  0.27402751E-01  0.50586953E-01  0.69780637E-01  0.84663201E-01
  0.95088930E-01  0.10107753E+00  0.10280003E+00  0.10056092E+00  0.94777194E-01
 Real Space Part
  0.00000000E+00 -0.49362646E+00 -0.98565844E+00 -0.14745061E+01 -0.19585889E+01
 -0.24363402E+01 -0.29062118E+01 -0.33666787E+01 -0.38162436E+01 -0.42534411E+01
 -0.46768428E+01 -0.50850612E+01 -0.54767541E+01 -0.58506293E+01 -0.62054485E+01
 -0.65400315E+01 -0.68532604E+01 -0.71440835E+01 -0.74115190E+01 -0.76546594E+01
 -0.78726742E+01 -0.80648144E+01 -0.82304152E+01 -0.83688994E+01 -0.84797808E+01
 -0.85626666E+01 -0.86172606E+01 -0.86433655E+01 -0.86408849E+01 -0.86098261E+01
 -0.85503013E+01 -0.84625296E+01 -0.83468380E+01 -0.82036626E+01 -0.80335493E+01
 -0.78371541E+01 -0.76152431E+01 -0.73686920E+01 -0.70984857E+01 -0.68057166E+01
 -0.64915833E+01 -0.61573881E+01 -0.58045346E+01 -0.54345243E+01 -0.50489528E+01
 -0.46495053E+01 -0.42379518E+01 -0.38161411E+01 -0.33859945E+01 -0.29494987E+01
 -0.25086977E+01 -0.20656845E+01 -0.16225915E+01 -0.11815802E+01 -0.74483063E+00
 -0.31452914E+00  0.10714364E+00  0.51802620E+00  0.91598993E+00  0.12989535E+01
  0.16648980E+01  0.20118822E+01  0.23380581E+01  0.26416876E+01  0.29211576E+01
  0.31749967E+01  0.34018901E+01  0.36006958E+01  0.37704583E+01  0.39104228E+01
  0.40200478E+01  0.40990167E+01  0.41472478E+01  0.41649025E+01  0.41523924E+01
  0.41103841E+01  0.40398017E+01  0.39418273E+01  0.38179004E+01  0.36697135E+01
  0.34992071E+01  0.33085618E+01  0.31001883E+01  0.28767178E+01  0.26409867E+01
  0.23960255E+01  0.21450405E+01  0.18914009E+01  0.16386194E+01  0.13903374E+01
  0.11503070E+01  0.92237389E+00  0.71046193E+00  0.51855564E+00  0.35068478E+00
  0.21091717E+00  0.10333652E+00  0.31833305E-01  0.16442598E-02  0.23590725E-16
 Non local Part
           2           2   1.35730237994786     
   8.81438779579014        10.8967533941696        10.8967533941696     
   13.4585005462526     
 Reciprocal Space Part
  0.00000000E+00  0.28880506E+00  0.11466750E+01  0.25481927E+01  0.44517187E+01
  0.68004555E+01  0.95238995E+01  0.12539643E+02  0.15755478E+02  0.19071758E+02
  0.22383937E+02  0.25585249E+02  0.28569432E+02  0.31233452E+02  0.33480135E+02
  0.35220666E+02  0.36376871E+02  0.36883231E+02  0.36688598E+02  0.35757534E+02
  0.34071275E+02  0.31628288E+02  0.28444394E+02  0.24552479E+02  0.20001793E+02
  0.14856851E+02  0.91959803E+01  0.31095356E+01 -0.33021532E+01 -0.99310624E+01
 -0.16663919E+02 -0.23384750E+02 -0.29977471E+02 -0.36328455E+02 -0.42329013E+02
 -0.47877730E+02 -0.52882610E+02 -0.57262963E+02 -0.60951010E+02 -0.63893165E+02
 -0.66050967E+02 -0.67401649E+02 -0.67938333E+02 -0.67669868E+02 -0.66620296E+02
 -0.64827996E+02 -0.62344514E+02 -0.59233123E+02 -0.55567154E+02 -0.51428141E+02
 -0.46903831E+02 -0.42086113E+02 -0.37068915E+02 -0.31946122E+02 -0.26809566E+02
 -0.21747128E+02 -0.16841006E+02 -0.12166177E+02 -0.77890775E+01 -0.37665494E+01
 -0.14503907E+00  0.30399193E+01  0.57639435E+01  0.80137692E+01  0.97869550E+01
  0.11091343E+02  0.11944298E+02  0.12371763E+02  0.12407141E+02  0.12090071E+02
  0.11465102E+02  0.10580326E+02  0.94859929E+01  0.82331595E+01  0.68723828E+01
  0.54525113E+01  0.40195879E+01  0.26158909E+01  0.12791315E+01  0.41819377E-01
 -0.10691958E+01 -0.20330037E+01 -0.28347367E+01 -0.34655047E+01 -0.39221720E+01
 -0.42069929E+01 -0.43271228E+01 -0.42940272E+01 -0.41228102E+01 -0.38314871E+01
 -0.34402246E+01 -0.29705718E+01 -0.24447061E+01 -0.18847130E+01 -0.13119201E+01
 -0.74630064E+00 -0.20595962E+00  0.29328690E+00  0.73823329E+00  0.11185030E+01
 Real Space Part
  0.00000000E+00 -0.16004025E+00 -0.63931055E+00 -0.14352628E+01 -0.25436610E+01
 -0.39585974E+01 -0.56725146E+01 -0.76762352E+01 -0.99589963E+01 -0.12508491E+02
 -0.15310917E+02 -0.18351028E+02 -0.21612194E+02 -0.25076468E+02 -0.28724654E+02
 -0.32536387E+02 -0.36490211E+02 -0.40563667E+02 -0.44733388E+02 -0.48975190E+02
 -0.53264178E+02 -0.57574852E+02 -0.61881213E+02 -0.66156882E+02 -0.70375217E+02
 -0.74509431E+02 -0.78532727E+02 -0.82418415E+02 -0.86140056E+02 -0.89671586E+02
 -0.92987463E+02 -0.96062802E+02 -0.98873516E+02 -0.10139647E+03 -0.10360960E+03
 -0.10549211E+03 -0.10702456E+03 -0.10818906E+03 -0.10896940E+03 -0.10935120E+03
 -0.10932203E+03 -0.10887162E+03 -0.10799193E+03 -0.10667732E+03 -0.10492469E+03
 -0.10273359E+03 -0.10010633E+03 -0.97048109E+02 -0.93567098E+02 -0.89674531E+02
 -0.85384769E+02 -0.80715351E+02 -0.75687029E+02 -0.70323771E+02 -0.64652747E+02
 -0.58704282E+02 -0.52511782E+02 -0.46111619E+02 -0.39542986E+02 -0.32847710E+02
 -0.26070025E+02 -0.19256296E+02 -0.12454705E+02 -0.57148877E+01  0.91247930E+00
  0.73761302E+01  0.13624711E+02  0.19607322E+02  0.25274092E+02  0.30576797E+02
  0.35469491E+02  0.39909172E+02  0.43856449E+02  0.47276212E+02  0.50138297E+02
  0.52418139E+02  0.54097371E+02  0.55164402E+02  0.55614946E+02  0.55452453E+02
  0.54688500E+02  0.53343084E+02  0.51444793E+02  0.49030953E+02  0.46147549E+02
  0.42849189E+02  0.39198786E+02  0.35267320E+02  0.31133308E+02  0.26882328E+02
  0.22606362E+02  0.18403058E+02  0.14374999E+02  0.10628771E+02  0.72740824E+01
  0.44229875E+01  0.21887015E+01  0.67994062E+00  0.38074474E-01  0.45548654E-15
 Reciprocal Space Part
  0.00000000E+00 -0.23654840E+00 -0.93902924E+00 -0.20861343E+01 -0.36429607E+01
 -0.55619114E+01 -0.77839224E+01 -0.10239986E+02 -0.12852930E+02 -0.15539412E+02
 -0.18212067E+02 -0.20781762E+02 -0.23159907E+02 -0.25260740E+02 -0.27003553E+02
 -0.28314791E+02 -0.29129969E+02 -0.29395368E+02 -0.29069463E+02 -0.28124040E+02
 -0.26544996E+02 -0.24332783E+02 -0.21502492E+02 -0.18083592E+02 -0.14119303E+02
 -0.96656539E+01 -0.47902230E+01  0.42938752E+00  0.59073112E+01  0.11551363E+02
  0.17265126E+02  0.22950114E+02  0.28507982E+02  0.33842692E+02  0.38862625E+02
  0.43482549E+02  0.47625430E+02  0.51224019E+02  0.54222194E+02  0.56576030E+02
  0.58254563E+02  0.59240249E+02  0.59529106E+02  0.59130537E+02  0.58066859E+02
  0.56372544E+02  0.54093191E+02  0.51284284E+02  0.48009745E+02  0.44340332E+02
  0.40351937E+02  0.36123800E+02  0.31736713E+02  0.27271239E+02  0.22805999E+02
  0.18416053E+02  0.14171435E+02  0.10135842E+02  0.63655297E+01  0.29084218E+01
 -0.19655441E+00 -0.29198901E+01 -0.52416799E+01 -0.71515726E+01 -0.86484982E+01
 -0.97401864E+01 -0.10442499E+02 -0.10778600E+02 -0.10777991E+02 -0.10475439E+02
 -0.99098426E+01 -0.91230423E+01 -0.81586366E+01 -0.70608132E+01 -0.58732345E+01
 -0.46380004E+01 -0.33947115E+01 -0.21796529E+01 -0.10251128E+01  0.41153377E-01
  0.99630664E+00  0.18226538E+01  0.25077261E+01  0.30442120E+01  0.34297562E+01
  0.36666358E+01  0.37613324E+01  0.37240157E+01  0.35679596E+01  0.33089120E+01
  0.29644364E+01  0.25532488E+01  0.20945666E+01  0.16074898E+01  0.11104278E+01
  0.62058899E+00  0.15354071E+00 -0.27714913E+00 -0.66018478E+00 -0.98672648E+00
 Real Space Part
  0.00000000E+00  0.13936325E+00  0.55672179E+00  0.12498848E+01  0.22152100E+01
  0.34476173E+01  0.49406079E+01  0.66862886E+01  0.86754016E+01  0.10897360E+02
  0.13340286E+02  0.15991060E+02  0.18835366E+02  0.21857753E+02  0.25041687E+02
  0.28369623E+02  0.31823071E+02  0.35382668E+02  0.39028262E+02  0.42738985E+02
  0.46493348E+02  0.50269326E+02  0.54044452E+02  0.57795916E+02  0.61500666E+02
  0.65135509E+02  0.68677221E+02  0.72102656E+02  0.75388860E+02  0.78513184E+02
  0.81453403E+02  0.84187839E+02  0.86695478E+02  0.88956097E+02  0.90950392E+02
  0.92660099E+02  0.94068125E+02  0.95158676E+02  0.95917387E+02  0.96331447E+02
  0.96389729E+02  0.96082912E+02  0.95403612E+02  0.94346492E+02  0.92908387E+02
  0.91088412E+02  0.88888066E+02  0.86311330E+02  0.83364755E+02  0.80057540E+02
  0.76401592E+02  0.72411580E+02  0.68104963E+02  0.63502008E+02  0.58625772E+02
  0.53502079E+02  0.48159455E+02  0.42629036E+02  0.36944451E+02  0.31141664E+02
  0.25258785E+02  0.19335837E+02  0.13414487E+02  0.75377377E+01  0.17495749E+01
 -0.39054221E+01 -0.93825119E+01 -0.14637258E+02 -0.19626031E+02 -0.24306538E+02
 -0.28638380E+02 -0.32583629E+02 -0.36107409E+02 -0.39178491E+02 -0.41769869E+02
 -0.43859340E+02 -0.45430039E+02 -0.46470941E+02 -0.46977344E+02 -0.46951249E+02
 -0.46401716E+02 -0.45345137E+02 -0.43805392E+02 -0.41813994E+02 -0.39410039E+02
 -0.36640183E+02 -0.33558382E+02 -0.30225692E+02 -0.26709826E+02 -0.23084746E+02
 -0.19430099E+02 -0.15830581E+02 -0.12375306E+02 -0.91570009E+01 -0.62712346E+01
 -0.38157443E+01 -0.18894019E+01 -0.58730589E+00 -0.32939678E-01 -0.39305391E-15
 PAW radial sets
         347   1.18228481466300     
(5E20.12)                                
 augmentation charges (non sperical)
  0.414133507438E-01 -0.237134936244E+00  0.404228780234E+00 -0.413413573650E+00  0.190301342496E+00
  0.231494300969E+00 -0.237134936244E+00  0.683053280427E-02 -0.169171828639E+00  0.345626537527E-01
 -0.100644193574E+00 -0.119737189217E+00  0.404228780234E+00 -0.169171828639E+00  0.555564215309E+00
 -0.381275230560E+00  0.308529303181E+00  0.371405173836E+00 -0.413413573650E+00  0.345626537527E-01
 -0.381275230560E+00  0.134453949154E+00 -0.238266460808E+00 -0.283733387266E+00  0.190301342496E+00
 -0.100644193574E+00  0.308529303181E+00 -0.238266460808E+00  0.178125094310E+00  0.214903840905E+00
  0.231494300969E+00 -0.119737189217E+00  0.371405173836E+00 -0.283733387266E+00  0.214903840905E+00
  0.259182213006E+00
 uccopancies in atom
  0.200000000289E+01  0.000000000000E+00  0.000000000000E+00  0.000000000000E+00  0.000000000000E+00
  0.000000000000E+00  0.000000000000E+00  0.999999999604E+00  0.000000000000E+00  0.000000000000E+00
  0.000000000000E+00  0.000000000000E+00  0.000000000000E+00  0.000000000000E+00  0.200000000385E+01
  0.000000000000E+00  0.000000000000E+00  0.000000000000E+00  0.000000000000E+00  0.000000000000E+00
  0.000000000000E+00  0.000000000000E+00  0.000000000000E+00  0.000000000000E+00  0.000000000000E+00
  0.000000000000E+00  0.000000000000E+00  0.000000000000E+00  0.100000000853E+01  0.000000000000E+00
  0.000000000000E+00  0.000000000000E+00  0.000000000000E+00  0.000000000000E+00  0.000000000000E+00
  0.000000000000E+00
 grid
  0.660861641414E-04  0.682351213345E-04  0.704539572545E-04  0.727449441832E-04  0.751104282916E-04
  0.775528320421E-04  0.800746566694E-04  0.826784847425E-04  0.853669828087E-04  0.881429041251E-04
  0.910090914776E-04  0.939684800925E-04  0.970241006425E-04  0.100179082350E-03  0.103436656192E-03
  0.106800158208E-03  0.110273032919E-03  0.113858836852E-03  0.117561242183E-03  0.121384040500E-03
  0.125331146681E-03  0.129406602908E-03  0.133614582804E-03  0.137959395710E-03  0.142445491092E-03
  0.147077463104E-03  0.151860055291E-03  0.156798165444E-03  0.161896850621E-03  0.167161332320E-03
  0.172597001830E-03  0.178209425753E-03  0.184004351700E-03  0.189987714183E-03  0.196165640687E-03
  0.202544457948E-03  0.209130698434E-03  0.215931107030E-03  0.222952647948E-03  0.230202511861E-03
  0.237688123261E-03  0.245417148071E-03  0.253397501485E-03  0.261637356084E-03  0.270145150198E-03
  0.278929596553E-03  0.287999691189E-03  0.297364722675E-03  0.307034281622E-03  0.317018270503E-03
  0.327326913796E-03  0.337970768452E-03  0.348960734708E-03  0.360308067250E-03  0.372024386739E-03
  0.384121691708E-03  0.396612370856E-03  0.409509215729E-03  0.422825433824E-03  0.436574662112E-03
  0.450770981003E-03  0.465428928769E-03  0.480563516430E-03  0.496190243125E-03  0.512325111988E-03
  0.528984646535E-03  0.546185907585E-03  0.563946510732E-03  0.582284644387E-03  0.601219088400E-03
  0.620769233297E-03  0.640955100134E-03  0.661797361002E-03  0.683317360200E-03  0.705537136085E-03
  0.728479443651E-03  0.752167777824E-03  0.776626397530E-03  0.801880350532E-03  0.827955499084E-03
  0.854878546418E-03  0.882677064087E-03  0.911379520201E-03  0.941015308584E-03  0.971614778873E-03
  0.100320926760E-02  0.103583113028E-02  0.106951377455E-02  0.110429169439E-02  0.114020050542E-02
  0.117727698141E-02  0.121555909190E-02  0.125508604112E-02  0.129589830812E-02  0.133803768823E-02
  0.138154733585E-02  0.142647180867E-02  0.147285711328E-02  0.152075075227E-02  0.157020177293E-02
  0.162126081741E-02  0.167398017464E-02  0.172841383385E-02  0.178461753986E-02  0.184264885018E-02
  0.190256719394E-02  0.196443393277E-02  0.202831242360E-02  0.209426808359E-02  0.216236845711E-02
  0.223268328489E-02  0.230528457545E-02  0.238024667886E-02  0.245764636287E-02  0.253756289151E-02
  0.262007810629E-02  0.270527651002E-02  0.279324535328E-02  0.288407472388E-02  0.297785763901E-02
  0.307469014058E-02  0.317467139354E-02  0.327790378742E-02  0.338449304122E-02  0.349454831164E-02
  0.360818230491E-02  0.372551139215E-02  0.384665572861E-02  0.397173937667E-02  0.410089043292E-02
  0.423424115933E-02  0.437192811869E-02  0.451409231448E-02  0.466087933527E-02  0.481243950378E-02
  0.496892803087E-02  0.513050517448E-02  0.529733640371E-02  0.546959256832E-02  0.564745007368E-02
  0.583109106141E-02  0.602070359593E-02  0.621648185705E-02  0.641862633882E-02  0.662734405484E-02
  0.684284875030E-02  0.706536112084E-02  0.729510903857E-02  0.753232778544E-02  0.777726029416E-02
  0.803015739703E-02  0.829127808279E-02  0.856088976184E-02  0.883926854008E-02  0.912669950173E-02
  0.942347700119E-02  0.972990496457E-02  0.100462972009E-01  0.103729777234E-01  0.107102810816E-01
  0.110585527034E-01  0.114181492496E-01  0.117894389784E-01  0.121728021230E-01  0.125686312806E-01
  0.129773318149E-01  0.133993222711E-01  0.138350348041E-01  0.142849156217E-01  0.147494254413E-01
  0.152290399613E-01  0.157242503490E-01  0.162355637432E-01  0.167635037733E-01  0.173086110962E-01
  0.178714439493E-01  0.184525787228E-01  0.190526105493E-01  0.196721539139E-01  0.203118432831E-01
  0.209723337549E-01  0.216543017290E-01  0.223584456004E-01  0.230854864738E-01  0.238361689027E-01
  0.246112616514E-01  0.254115584827E-01  0.262378789705E-01  0.270910693391E-01  0.279720033301E-01
  0.288815830967E-01  0.298207401283E-01  0.307904362036E-01  0.317916643762E-01  0.328254499913E-01
  0.338928517355E-01  0.349949627216E-01  0.361329116076E-01  0.373078637524E-01  0.385210224099E-01
  0.397736299605E-01  0.410669691838E-01  0.424023645720E-01  0.437811836870E-01  0.452048385598E-01
  0.466747871375E-01  0.481925347758E-01  0.497596357811E-01  0.513776950015E-01  0.530483694713E-01
  0.547733701070E-01  0.565544634601E-01  0.583934735257E-01  0.602922836108E-01  0.622528382630E-01
  0.642771452615E-01  0.663672776735E-01  0.685253759773E-01  0.707536502542E-01  0.730543824517E-01
  0.754299287207E-01  0.778827218280E-01  0.804152736482E-01  0.830301777357E-01  0.857301119807E-01
  0.885178413518E-01  0.913962207276E-01  0.943681978200E-01  0.974368161932E-01  0.100605218381E+00
  0.103876649103E+00  0.107254458591E+00  0.110742106018E+00  0.114343163038E+00  0.118061317448E+00
  0.121900376965E+00  0.125864273119E+00  0.129957065288E+00  0.134182944848E+00  0.138546239469E+00
  0.143051417546E+00  0.147703092775E+00  0.152506028878E+00  0.157465144481E+00  0.162585518152E+00
  0.167872393601E+00  0.173331185051E+00  0.178967482780E+00  0.184787058851E+00  0.190795873017E+00
  0.197000078830E+00  0.203406029939E+00  0.210020286596E+00  0.216849622380E+00  0.223901031126E+00
  0.231181734094E+00  0.238699187358E+00  0.246461089450E+00  0.254475389233E+00  0.262750294053E+00
  0.271294278134E+00  0.280116091262E+00  0.289224767746E+00  0.298629635665E+00  0.308340326427E+00
  0.318366784628E+00  0.328719278236E+00  0.339408409110E+00  0.350445123853E+00  0.361840725028E+00
  0.373606882723E+00  0.385755646514E+00  0.398299457796E+00  0.411251162528E+00  0.424624024387E+00
  0.438431738353E+00  0.452688444731E+00  0.467408743634E+00  0.482607709935E+00  0.498300908703E+00
  0.514504411145E+00  0.531234811064E+00  0.548509241851E+00  0.566345394033E+00  0.584761533388E+00
  0.603776519652E+00  0.623409825833E+00  0.643681558152E+00  0.664612476634E+00  0.686224016369E+00
  0.708538309461E+00  0.731578207698E+00  0.755367305948E+00  0.779929966326E+00  0.805291343144E+00
  0.831477408667E+00  0.858514979714E+00  0.886431745122E+00  0.915256294096E+00  0.945018145495E+00
  0.975747778055E+00  0.100747666160E+01  0.104023728929E+01  0.107406321087E+01  0.110898906702E+01
  0.114505062489E+01  0.118228481466E+01  0.122072976740E+01  0.126042485408E+01  0.130141072596E+01
  0.134372935615E+01  0.138742408262E+01  0.143253965258E+01  0.147912226834E+01  0.152721963454E+01
  0.157688100711E+01  0.162815724363E+01  0.168110085543E+01  0.173576606142E+01  0.179220884353E+01
  0.185048700411E+01  0.191066022508E+01  0.197279012908E+01  0.203694034257E+01  0.210317656097E+01
  0.217156661595E+01  0.224218054490E+01  0.231509066266E+01  0.239037163557E+01  0.246810055791E+01
  0.254835703090E+01  0.263122324417E+01  0.271678405997E+01  0.280512710005E+01  0.289634283541E+01
  0.299052467893E+01  0.308776908104E+01  0.318817562851E+01  0.329184714642E+01  0.339888980347E+01
  0.350941322069E+01  0.362353058371E+01  0.374135875869E+01  0.386301841197E+01  0.398863413368E+01
  0.411833456528E+01  0.425225253135E+01
 aepotential
  0.102651337746E+05  0.103240247559E+05  0.103759715610E+05  0.104204428501E+05  0.104569309173E+05
  0.104849563517E+05  0.105040749672E+05  0.105138832036E+05  0.105140240269E+05  0.105041920399E+05
  0.104841385828E+05  0.104536760268E+05  0.104126811230E+05  0.103610983148E+05  0.102989414878E+05
  0.102262951798E+05  0.101433147527E+05  0.100502255829E+05  0.994732115989E+04  0.983496050069E+04
  0.971356419905E+04  0.958361008734E+04  0.944562777893E+04  0.930019264122E+04  0.914791926943E+04
  0.898945453026E+04  0.882547021752E+04  0.865665560195E+04  0.848371002328E+04  0.830733596505E+04
  0.812823115079E+04  0.794708267515E+04  0.776456067702E+04  0.758131225178E+04  0.739795701281E+04
  0.721508237866E+04  0.703324015593E+04  0.685294350268E+04  0.667466483870E+04  0.649883426888E+04
  0.632583879153E+04  0.615602205832E+04  0.598968471233E+04  0.582708525510E+04  0.566844132456E+04
  0.551393135775E+04  0.536369657229E+04  0.521784318131E+04  0.507644479451E+04  0.493954494614E+04
  0.480715968978E+04  0.467928022018E+04  0.455587547468E+04  0.443689468100E+04  0.432226982007E+04
  0.421191798009E+04  0.410574358260E+04  0.400364046674E+04  0.390549382226E+04  0.381118196565E+04
  0.372057795806E+04  0.363355106527E+04  0.354996806400E+04  0.346969439916E+04  0.339259520057E+04
  0.331853616506E+04  0.324738431528E+04  0.317900864276E+04  0.311328064695E+04  0.305007477576E+04
  0.298926878452E+04  0.293074401211E+04  0.287438559498E+04  0.282008261633E+04  0.276772820198E+04
  0.271721958024E+04  0.266845808781E+04  0.262134916177E+04  0.257580227694E+04  0.253173089923E+04
  0.248905237605E+04  0.244768785052E+04  0.240756213920E+04  0.236860361094E+04  0.233074406457E+04
  0.229391858524E+04  0.225806542322E+04  0.222312584731E+04  0.218904401859E+04  0.215576685374E+04
  0.212324389448E+04  0.209142718418E+04  0.206027114161E+04  0.202973244469E+04  0.199976991428E+04
  0.197034440800E+04  0.194141871228E+04  0.191295744697E+04  0.188492696865E+04  0.185729528359E+04
  0.183003196260E+04  0.180310806322E+04  0.177649605598E+04  0.175016975382E+04  0.172410425035E+04
  0.169827585776E+04  0.167266205309E+04  0.164724142668E+04  0.162199363600E+04  0.159689936262E+04
  0.157194027455E+04  0.154709899071E+04  0.152235905158E+04  0.149770489103E+04  0.147312181435E+04
  0.144859597815E+04  0.142411437488E+04  0.139966482091E+04  0.137523594795E+04  0.135081719872E+04
  0.132639882578E+04  0.130197189490E+04  0.127752829198E+04  0.125306073398E+04  0.122856278466E+04
  0.120402887400E+04  0.117945432288E+04  0.115483537216E+04  0.113016921695E+04  0.110545404605E+04
  0.108068908683E+04  0.105587465544E+04  0.103101221280E+04  0.100610442582E+04  0.981155233965E+03
  0.956169920333E+03  0.931155186712E+03  0.906119230914E+03  0.881071824986E+03  0.856024391199E+03
  0.830990072866E+03  0.805983794834E+03  0.781022308983E+03  0.756124216432E+03  0.731309959924E+03
  0.706601775614E+03  0.682023595694E+03  0.657600891814E+03  0.633360451878E+03  0.609330086537E+03
  0.585538269363E+03  0.562013725655E+03  0.538785003093E+03  0.515880079640E+03  0.493326094560E+03
  0.471149321649E+03  0.449375536097E+03  0.428030947416E+03  0.407143863318E+03  0.386747190386E+03
  0.366881740385E+03  0.347600075051E+03  0.328970291250E+03  0.311078772373E+03  0.294030628624E+03
  0.277946498875E+03  0.262954777188E+03  0.249179255095E+03  0.236723492799E+03  0.225654541467E+03
  0.215989377652E+03  0.207687096627E+03  0.200648572615E+03  0.194723419712E+03  0.189722472221E+03
  0.185433216720E+03  0.181635685756E+03  0.178116855547E+03  0.174682181336E+03  0.171163421019E+03
  0.167422522367E+03  0.163351991538E+03  0.158872698268E+03  0.153930222401E+03  0.148490699489E+03
  0.142536791639E+03  0.136064140475E+03  0.129078448562E+03  0.121593231578E+03  0.113628209090E+03
  0.105208258970E+03  0.963628363386E+02  0.871257453993E+02  0.775351534172E+02  0.676337359676E+02
  0.574688503284E+02  0.470926429316E+02  0.365620092192E+02  0.259383620660E+02  0.152872307650E+02
  0.467781889561E+01 -0.581720027008E+01 -0.161212363529E+02 -0.261522340133E+02 -0.358198352426E+02
 -0.450217856746E+02 -0.536413236664E+02 -0.615485676276E+02 -0.686092889059E+02 -0.747029015947E+02
 -0.797479307901E+02 -0.837291766364E+02 -0.867179899266E+02 -0.888760326270E+02 -0.904345834378E+02
 -0.916507602119E+02 -0.927583791997E+02 -0.939381802313E+02 -0.953171675366E+02 -0.969847667278E+02
 -0.990077573678E+02 -0.101436252906E+03 -0.104303614448E+03 -0.107625739669E+03 -0.111402356673E+03
 -0.115619924510E+03 -0.120254725652E+03 -0.125275117169E+03 -0.130642640815E+03 -0.136312191630E+03
 -0.142231666235E+03 -0.148341607108E+03 -0.154575387954E+03 -0.160860424542E+03 -0.167120556583E+03
 -0.173278880388E+03 -0.179258768612E+03 -0.184979109896E+03 -0.190339912516E+03 -0.195199759723E+03
 -0.199358971487E+03 -0.202575418293E+03 -0.204639118482E+03 -0.205503702739E+03 -0.205404614259E+03
 -0.204814427684E+03 -0.204187633561E+03 -0.203741616514E+03 -0.203484744210E+03 -0.203364355259E+03
 -0.203357806111E+03 -0.203485067588E+03 -0.203786569828E+03 -0.204298977018E+03 -0.205042278064E+03
 -0.206018465684E+03 -0.207216260970E+03 -0.208616704326E+03 -0.210197153389E+03 -0.211933357502E+03
 -0.213800146536E+03 -0.215771372177E+03 -0.217819565349E+03 -0.219915597464E+03 -0.222028503775E+03
 -0.224125545341E+03 -0.226172537965E+03 -0.228134384091E+03 -0.229975731932E+03 -0.231661603622E+03
 -0.233157960181E+03 -0.234432189700E+03 -0.235453868412E+03 -0.236196153693E+03 -0.236638034191E+03
 -0.236767035539E+03 -0.236581266056E+03 -0.236089462365E+03 -0.235308573973E+03 -0.234259654108E+03
 -0.232963825461E+03 -0.231439674721E+03 -0.229702431008E+03 -0.227764388801E+03 -0.225635838350E+03
 -0.223325966594E+03 -0.220843537650E+03 -0.218197332721E+03 -0.215396408491E+03 -0.212450219702E+03
 -0.209368652745E+03 -0.206161982523E+03 -0.202840794710E+03 -0.199415868654E+03 -0.195898076816E+03
 -0.192298275522E+03 -0.188627222235E+03 -0.184895510496E+03 -0.181113508488E+03 -0.177291328587E+03
 -0.173438757753E+03 -0.169565223792E+03 -0.165679804186E+03 -0.161791105160E+03 -0.157907395211E+03
 -0.154036584248E+03 -0.150186303963E+03 -0.146363952233E+03 -0.142576700804E+03 -0.138831442970E+03
 -0.135134693004E+03 -0.131492451834E+03 -0.127910088109E+03 -0.124392250966E+03 -0.120942836497E+03
 -0.117564995964E+03 -0.114261180030E+03 -0.111033191610E+03 -0.107882229820E+03 -0.104808928883E+03
 -0.101813357938E+03 -0.988950254783E+02 -0.960528641331E+02 -0.932852496366E+02 -0.905900512700E+02
 -0.879647408000E+02 -0.854065555902E+02 -0.829127006751E+02 -0.804805588534E+02 -0.781078763384E+02
 -0.757928952372E+02 -0.735344224050E+02 -0.713318202593E+02 -0.691849510393E+02 -0.670940636306E+02
 -0.650596532866E+02 -0.630823025244E+02 -0.611625178369E+02 -0.593005766677E+02 -0.574964001439E+02
 -0.557494665273E+02 -0.540587764536E+02 -0.524228734867E+02 -0.508399139783E+02 -0.493077717207E+02
 -0.478241582256E+02 -0.463867397895E+02
 core charge-density
  0.143113811582E+00  0.150944451670E+00  0.159200209349E+00  0.167903878628E+00  0.177079450259E+00
  0.186752172313E+00  0.196948613602E+00  0.207696730091E+00  0.219025934409E+00  0.230967168578E+00
  0.243552980088E+00  0.256817601451E+00  0.270797033354E+00  0.285529131553E+00  0.301053697631E+00
  0.317412573763E+00  0.334649741619E+00  0.352811425543E+00  0.371946200142E+00  0.392105102423E+00
  0.413341748597E+00  0.435712455712E+00  0.459276368202E+00  0.484095589507E+00  0.510235318872E+00
  0.537763993428E+00  0.566753435670E+00  0.597279006419E+00  0.629419763360E+00  0.663258625211E+00
  0.698882541596E+00  0.736382668646E+00  0.775854550356E+00  0.817398305695E+00  0.861118821434E+00
  0.907125950647E+00  0.955534716794E+00  0.100646552326E+01  0.106004436819E+01  0.111640306447E+01
  0.117567946445E+01  0.123801768933E+01  0.130356836269E+01  0.137248884771E+01  0.144494348778E+01
  0.152110384973E+01  0.160114896909E+01  0.168526559674E+01  0.177364844589E+01  0.186650043870E+01
  0.196403295125E+01  0.206646605576E+01  0.217402875883E+01  0.228695923402E+01  0.240550504730E+01
  0.252992337351E+01  0.266048120188E+01  0.279745552842E+01  0.294113353274E+01  0.309181273686E+01
  0.324980114302E+01  0.341541734749E+01  0.358899062706E+01  0.377086099455E+01  0.396137921948E+01
  0.416090680968E+01  0.436981594939E+01  0.458848938887E+01  0.481732028056E+01  0.505671195602E+01
  0.530707763799E+01  0.556884008121E+01  0.584243113535E+01  0.612829122320E+01  0.642686872664E+01
  0.673861927271E+01  0.706400491172E+01  0.740349317896E+01  0.775755603122E+01  0.812666864915E+01
  0.851130809608E+01  0.891195182380E+01  0.932907601546E+01  0.976315375604E+01  0.102146530201E+02
  0.106840344674E+02  0.111717490362E+02  0.116782353256E+02  0.122039167562E+02  0.127491985034E+02
  0.133144641917E+02  0.139000723465E+02  0.145063525954E+02  0.151336016152E+02  0.157820788209E+02
  0.164520017974E+02  0.171435414717E+02  0.178568170323E+02  0.185918906002E+02  0.193487616614E+02
  0.201273612748E+02  0.209275460716E+02  0.217490920689E+02  0.225916883241E+02  0.234549304623E+02
  0.243383141147E+02  0.252412283137E+02  0.261629488962E+02  0.271026319734E+02  0.280593075373E+02
  0.290318732768E+02  0.300190886900E+02  0.310195695869E+02  0.320317830849E+02  0.330540432118E+02
  0.340845072379E+02  0.351211728719E+02  0.361618764602E+02  0.372042923431E+02  0.382459335258E+02
  0.392841538312E+02  0.403161517077E+02  0.413389758690E+02  0.423495329459E+02  0.433445973297E+02
  0.443208233865E+02  0.452747602123E+02  0.462028690934E+02  0.471015438201E+02  0.479671339847E+02
  0.487959713712E+02  0.495843995153E+02  0.503288064759E+02  0.510256608209E+02  0.516715507776E+02
  0.522632264427E+02  0.527976448856E+02  0.532720179026E+02  0.536838621054E+02  0.540310509399E+02
  0.543118681374E+02  0.545250620051E+02  0.546698998579E+02  0.547462217898E+02  0.547544928730E+02
  0.546958527706E+02  0.545721616415E+02  0.543860411226E+02  0.541409090862E+02  0.538410067944E+02
  0.534914170221E+02  0.530980716806E+02  0.526677474727E+02  0.522080481317E+02  0.517273718589E+02
  0.512348626791E+02  0.507403445777E+02  0.502542374838E+02  0.497874544117E+02  0.493512793782E+02
  0.489572260718E+02  0.486168776674E+02  0.483417086451E+02  0.481428899936E+02  0.480310797426E+02
  0.480162013699E+02  0.481072132663E+02  0.483118730915E+02  0.486365015182E+02  0.490857504818E+02
  0.496623816840E+02  0.503670615989E+02  0.511981796737E+02  0.521516967060E+02  0.532210305203E+02
  0.543969860141E+02  0.556677363861E+02  0.570188618575E+02  0.584334514438E+02  0.598922722955E+02
  0.613740098210E+02  0.628555801981E+02  0.643125150253E+02  0.657194157267E+02  0.670504729854E+02
  0.682800439321E+02  0.693832771595E+02  0.703367729106E+02  0.711192631127E+02  0.717122933843E+02
  0.721008868547E+02  0.722741677212E+02  0.722259210726E+02  0.719550647490E+02  0.714660090355E+02
  0.707688809114E+02  0.698795915195E+02  0.688197285475E+02  0.676162593843E+02  0.663010362222E+02
  0.649101006610E+02  0.634827927195E+02  0.620606772645E+02  0.606863094695E+02  0.594018696613E+02
  0.582477064229E+02  0.572608346653E+02  0.564734421465E+02  0.559114632127E+02  0.555932819935E+02
  0.555286285310E+02  0.557177299608E+02  0.561507745830E+02  0.568077388399E+02  0.576586158758E+02
  0.586640685700E+02  0.597765102136E+02  0.609415947956E+02  0.621000779295E+02  0.631899906341E+02
  0.641490504273E+02  0.649172171133E+02  0.654392856825E+02  0.656673981398E+02  0.655633515809E+02
  0.651005822732E+02  0.642657146485E+02  0.630595797728E+02  0.614976293681E+02  0.596096981534E+02
  0.574390981652E+02  0.550410623745E+02  0.524805898067E+02  0.498297785485E+02  0.471647644362E+02
  0.445624096300E+02  0.420969043567E+02  0.398364546671E+02  0.378402272699E+02  0.361557087007E+02
  0.348166115818E+02  0.338414297469E+02  0.332327123853E+02  0.329771022590E+02  0.330461649942E+02
  0.333980090382E+02  0.339796204640E+02  0.347297186728E+02  0.355818835746E+02  0.364677549393E+02
  0.373201650822E+02  0.380760768479E+02  0.386791913008E+02  0.390820958788E+02  0.392478496141E+02
  0.391509432106E+02  0.387776200575E+02  0.381255905757E+02  0.372032104166E+02  0.360282204292E+02
  0.346261628422E+02  0.330285944286E+02  0.312712148655E+02  0.293920185170E+02  0.274295623733E+02
  0.254214238130E+02  0.234029007834E+02  0.214059863420E+02  0.194586294236E+02  0.175842765705E+02
  0.158016740401E+02  0.141248996249E+02  0.125635852315E+02  0.111232881192E+02  0.980596835655E+01
  0.861053231861E+01  0.753340563413E+01  0.656910329238E+01  0.571076901028E+01  0.495066184235E+01
  0.428057506021E+01  0.369217989742E+01  0.317729395542E+01  0.272807935809E+01  0.233717887849E+01
  0.199779969871E+01  0.170375466755E+01  0.144947051017E+01  0.122997160271E+01  0.104084686010E+01
  0.878206095388E+00  0.738630978460E+00  0.619124517514E+00  0.517061916846E+00  0.430144683342E+00
  0.356359101284E+00  0.293939548533E+00  0.241336684557E+00  0.197190221686E+00  0.160305797332E+00
  0.129635377628E+00  0.104260595093E+00  0.833783516261E-01  0.662887972431E-01  0.523840273327E-01
  0.411384757423E-01  0.321000889162E-01  0.248822510627E-01  0.191563466488E-01  0.146448899097E-01
  0.111151823947E-01  0.837347987852E-02  0.625966107547E-02  0.464239403979E-02  0.341479414598E-02
  0.249056221302E-02  0.180058462899E-02  0.128997086562E-02  0.915498386096E-03  0.643431178165E-03
  0.447675966828E-03  0.308239470146E-03  0.209950559032E-03  0.141412626015E-03  0.941535836287E-04
  0.619434963387E-04  0.402527120530E-04  0.258263519629E-04  0.163540147513E-04  0.102164522048E-04
  0.629370085261E-05  0.382165637292E-05  0.228632446535E-05  0.134696482594E-05  0.781065050487E-06
  0.445552504196E-06  0.249888604379E-06  0.137711946974E-06  0.745251307456E-07  0.395781332026E-07
  0.206125972854E-07  0.105202834928E-07  0.525801902285E-08  0.257152561927E-08  0.122970182231E-08
  0.574524032880E-09  0.262040472702E-09
 kinetic energy-density
  0.323574739087E+07  0.321354622607E+07  0.319178069342E+07  0.317045299946E+07  0.314956536871E+07
  0.312912005714E+07  0.310911936193E+07  0.308956563332E+07  0.307046128207E+07  0.305180879782E+07
  0.303361076421E+07  0.301586985629E+07  0.299858886791E+07  0.298177072303E+07  0.296541847939E+07
  0.294953535300E+07  0.293412472334E+07  0.291919014647E+07  0.290473537564E+07  0.289076436048E+07
  0.287728127188E+07  0.286429050602E+07  0.285179669663E+07  0.283980472544E+07  0.282831973465E+07
  0.281734713337E+07  0.280689260543E+07  0.279696211361E+07  0.278756193605E+07  0.277869862023E+07
  0.277037902494E+07  0.276261034261E+07  0.275540004891E+07  0.274875596808E+07  0.274268623054E+07
  0.273719931323E+07  0.273230401493E+07  0.272800948195E+07  0.272432520207E+07  0.272126100846E+07
  0.271882708988E+07  0.271703398676E+07  0.271589260249E+07  0.271541420512E+07  0.271561043044E+07
  0.271649328821E+07  0.271807516549E+07  0.272036883099E+07  0.272338743939E+07  0.272714453464E+07
  0.273165405392E+07  0.273693033018E+07  0.274298809490E+07  0.274984247978E+07  0.275750901768E+07
  0.276600364267E+07  0.277534268888E+07  0.278554288810E+07  0.279662136594E+07  0.280859563624E+07
  0.282148359364E+07  0.283530350415E+07  0.285007399332E+07  0.286581403170E+07  0.288254291775E+07
  0.290028025753E+07  0.291904594088E+07  0.293886011366E+07  0.295974314708E+07  0.298171560060E+07
  0.300479818251E+07  0.302901170299E+07  0.305437702276E+07  0.308091499842E+07  0.310864641328E+07
  0.313759191264E+07  0.316777191967E+07  0.319920655706E+07  0.323191554391E+07  0.326591809973E+07
  0.330123282765E+07  0.333787759335E+07  0.337586939073E+07  0.341522419751E+07  0.345595682028E+07
  0.349808072348E+07  0.354160784934E+07  0.358654842396E+07  0.363291074468E+07  0.368070096284E+07
  0.372992284001E+07  0.378057749725E+07  0.383266314674E+07  0.388617480546E+07  0.394110399559E+07
  0.399743842748E+07  0.405516166769E+07  0.411425278865E+07  0.417468600814E+07  0.423643030737E+07
  0.429944904169E+07  0.436369953217E+07  0.442913265135E+07  0.449569239318E+07  0.456331543910E+07
  0.463193071529E+07  0.470145894750E+07  0.477181221491E+07  0.484289350665E+07  0.491459628504E+07
  0.498680406024E+07  0.505938997892E+07  0.513221643630E+07  0.520513471318E+07  0.527798464690E+07
  0.535059434340E+07  0.542277993531E+07  0.549434539793E+07  0.556508242790E+07  0.563477039705E+07
  0.570317638821E+07  0.577005532432E+07  0.583515020190E+07  0.589819243677E+07  0.595890233573E+07
  0.601698970263E+07  0.607215459006E+07  0.612408820743E+07  0.617247399354E+07  0.621698886420E+07
  0.625730464175E+07  0.629308967321E+07  0.632401064266E+07  0.634973458047E+07  0.636993107098E+07
  0.638427465659E+07  0.639244743481E+07  0.639414183946E+07  0.638906359628E+07  0.637693483717E+07
  0.635749735360E+07  0.633051596751E+07  0.629578198724E+07  0.625311672134E+07  0.620237500533E+07
  0.614344870516E+07  0.607627014365E+07  0.600081540125E+07  0.591710743352E+07  0.582521894448E+07
  0.572527495396E+07  0.561745499280E+07  0.550199486032E+07  0.537918787895E+07  0.524938558062E+07
  0.511299776537E+07  0.497049187509E+07  0.482239163230E+07  0.466927490144E+07  0.451177073808E+07
  0.435055560171E+07  0.418634871800E+07  0.401990658837E+07  0.385201665885E+07  0.368349017663E+07
  0.351515428430E+07  0.334784342933E+07  0.318239017763E+07  0.301961560442E+07  0.286031936908E+07
  0.270526968929E+07  0.255519338043E+07  0.241076614153E+07  0.227260325895E+07  0.214125089215E+07
  0.201717810311E+07  0.190076979066E+07  0.179232069061E+07  0.169203060042E+07  0.160000097746E+07
  0.151623304649E+07  0.144062753073E+07  0.137298609228E+07  0.131301453537E+07  0.126032778756E+07
  0.121445663267E+07  0.117485612873E+07  0.114091560038E+07  0.111197005280E+07  0.108731281612E+07
  0.106620918936E+07  0.104791082027E+07  0.103167052521E+07  0.101675723167E+07  0.100247070260E+07
  0.988155691301E+06  0.973215171706E+06  0.957122289051E+06  0.939430693207E+06  0.919782937945E+06
  0.897916667075E+06  0.873668355812E+06  0.846974435997E+06  0.817869703412E+06  0.786482987461E+06
  0.753030140932E+06  0.717804498936E+06  0.681165037639E+06  0.643522558739E+06  0.605324326509E+06
  0.567037686565E+06  0.529133283563E+06  0.492068543440E+06  0.456272073755E+06  0.422129564552E+06
  0.389971700603E+06  0.360064447554E+06  0.332602003285E+06  0.307702623033E+06  0.285407460824E+06
  0.265682474295E+06  0.248423306850E+06  0.233462909671E+06  0.220581519930E+06  0.209518484887E+06
  0.199985328083E+06  0.191679400093E+06  0.184297442625E+06  0.177548422356E+06  0.171165049726E+06
  0.164913487748E+06  0.158600862794E+06  0.152080317265E+06  0.145253472032E+06  0.138070306307E+06
  0.130526599345E+06  0.122659209550E+06  0.114539588062E+06  0.106266008635E+06  0.979550267764E+05
  0.897326475484E+05  0.817256194717E+05  0.740532702068E+05  0.668203658757E+05  0.601115665073E+05
  0.539879966829E+05  0.484860526790E+05  0.436179680843E+05  0.393734710551E+05  0.357222796291E+05
  0.326174139146E+05  0.299991902417E+05  0.277995922569E+05  0.259466808081E+05  0.243687376093E+05
  0.229978900478E+05  0.217730274129E+05  0.206418937124E+05  0.195623227834E+05  0.185026559990E+05
  0.174414427576E+05  0.163665643707E+05  0.152739424263E+05  0.141659951497E+05  0.130499932122E+05
  0.119364439422E+05  0.108376051126E+05  0.976619903955E+04  0.873436912210E+04  0.775289540792E+04
  0.683066491349E+04  0.597437546590E+04  0.518844040483E+04  0.447505527567E+04  0.383438496889E+04
  0.326483269710E+04  0.276335722292E+04  0.232581016478E+04  0.194727143824E+04  0.162236129157E+04
  0.134551424904E+04  0.111120416136E+04  0.914116530770E+03  0.749270486281E+03  0.612096398475E+03
  0.498477015465E+03  0.404759897441E+03  0.327748539521E+03  0.264678401479E+03  0.213183196677E+03
  0.171255768651E+03  0.137206808256E+03  0.109623985986E+03  0.873331273029E+02  0.693625646496E+02
  0.549112140321E+02  0.433205966692E+02  0.340507238115E+02  0.266596044333E+02  0.207860232498E+02
  0.161351974171E+02  0.124668838896E+02  0.958571377711E+01  0.733279152267E+01  0.557956016829E+01
  0.422205817642E+01  0.317652820211E+01  0.237573546039E+01  0.176593130891E+01  0.130434654828E+01
  0.957121263342E+00  0.697595927678E+00  0.504902863245E+00  0.362808374427E+00  0.258764649360E+00
  0.183137262461E+00  0.128579424737E+00  0.895283614314E-01  0.618027622140E-01  0.422833185192E-01
  0.286610534531E-01  0.192405503402E-01  0.127872843111E-01  0.841010846730E-02  0.547153426134E-02
  0.351980722282E-02  0.223792919353E-02  0.140574191890E-02  0.871986936622E-03  0.533915010872E-03
  0.322554672209E-03  0.192181825685E-03  0.112876435070E-03  0.653241708067E-04  0.372317009814E-04
  0.208880375642E-04  0.115290169750E-04  0.625670760125E-05  0.333650157157E-05  0.174721018187E-05
  0.897857917325E-06  0.452443055789E-06  0.223401327275E-06  0.108002318040E-06  0.510806143059E-07
  0.236154874071E-07  0.106632759027E-07
 mkinetic energy-density pseudized
  0.675830944145E-06  0.720498231946E-06  0.768117687882E-06  0.818884427818E-06  0.873006463293E-06
  0.930705553828E-06  0.992218115559E-06  0.105779618993E-05  0.112770847641E-05  0.120224143345E-05
  0.128170045224E-05  0.136641110799E-05  0.145672049395E-05  0.155299864361E-05  0.165564004684E-05
  0.176506526629E-05  0.188172266061E-05  0.200609022153E-05  0.213867753239E-05  0.228002785613E-05
  0.243072036121E-05  0.259137249472E-05  0.276264251229E-05  0.294523217525E-05  0.313988962599E-05
  0.334741245340E-05  0.356865096093E-05  0.380451165061E-05  0.405596093730E-05  0.432402910855E-05
  0.460981454604E-05  0.491448822607E-05  0.523929851757E-05  0.558557629710E-05  0.595474040198E-05
  0.634830344385E-05  0.676787800639E-05  0.721518325276E-05  0.769205196961E-05  0.820043807677E-05
  0.874242463321E-05  0.932023237212E-05  0.993622880012E-05  0.105929378979E-04  0.112930504618E-04
  0.120394351291E-04  0.128351501323E-04  0.136834558289E-04  0.145878280616E-04  0.155519723991E-04
  0.165798393196E-04  0.176756403976E-04  0.188438655601E-04  0.200893014834E-04  0.214170512061E-04
  0.228325550380E-04  0.243416128513E-04  0.259504078445E-04  0.276655318773E-04  0.294940124801E-04
  0.314433416480E-04  0.335215065383E-04  0.357370221967E-04  0.380989664468E-04  0.406170170845E-04
  0.433014915317E-04  0.461633891103E-04  0.492144361099E-04  0.524671338347E-04  0.559348098254E-04
  0.596316724661E-04  0.635728692013E-04  0.677745485993E-04  0.722539265182E-04  0.770293566441E-04
  0.821204056925E-04  0.875479335780E-04  0.933341788840E-04  0.995028499801E-04  0.106079222162E-03
  0.113090241210E-03  0.120564633795E-03  0.128533025177E-03  0.137028064683E-03  0.146084559482E-03
  0.155739617194E-03  0.166032797929E-03  0.177006276372E-03  0.188705014580E-03  0.201176946200E-03
  0.214473172856E-03  0.228648173525E-03  0.243760027736E-03  0.259870653535E-03  0.277046061160E-03
  0.295356623494E-03  0.314877364380E-03  0.335688265998E-03  0.357874596544E-03  0.381527259577E-03
  0.406743166435E-03  0.433625633274E-03  0.462284804340E-03  0.492838103206E-03  0.525410713830E-03
  0.560136093403E-03  0.597156519080E-03  0.636623670839E-03  0.678699252850E-03  0.723555655907E-03
  0.771376663618E-03  0.822358205265E-03  0.876709158399E-03  0.934652204461E-03  0.996424740934E-03
  0.106227985376E-02  0.113248735398E-02  0.120733488289E-02  0.128712909016E-02  0.137219688983E-02
  0.146288679921E-02  0.155957036625E-02  0.166264369122E-02  0.177252904882E-02  0.188967661747E-02
  0.201456632280E-02  0.214770980286E-02  0.228965250314E-02  0.244097590987E-02  0.260229993081E-02
  0.277428543321E-02  0.295763694935E-02  0.315310556063E-02  0.336149197204E-02  0.358364978959E-02
  0.382048901397E-02  0.407297976482E-02  0.434215625065E-02  0.462912100074E-02  0.493504937618E-02
  0.526119437844E-02  0.560889177509E-02  0.597956556342E-02  0.637473379444E-02  0.679601478057E-02
  0.724513371269E-02  0.772392971302E-02  0.823436335277E-02  0.877852466497E-02  0.935864168487E-02
  0.997708955269E-02  0.106364002155E-01  0.113392727676E-01  0.120885844707E-01  0.128874024996E-01
  0.137389964590E-01  0.146468517241E-01  0.156146836562E-01  0.166464527529E-01  0.177463807923E-01
  0.189189680362E-01  0.201690115614E-01  0.215016247930E-01  0.229222583164E-01  0.244367220522E-01
  0.260512088816E-01  0.277723198169E-01  0.296070908154E-01  0.315630213447E-01  0.336481048105E-01
  0.358708609675E-01  0.382403704403E-01  0.407663114900E-01  0.434589991682E-01  0.463294270136E-01
  0.493893114494E-01  0.526511390552E-01  0.561282168946E-01  0.598347260897E-01  0.637857788488E-01
  0.679974791608E-01  0.724869873876E-01  0.772725889935E-01  0.823737676705E-01  0.878112831268E-01
  0.936072538261E-01  0.997852449777E-01  0.106370362095E+00  0.113389350456E+00  0.120870700822E+00
  0.128844761779E+00  0.137343859092E+00  0.146402422483E+00  0.156057120257E+00  0.166347002224E+00
  0.177313651382E+00  0.189001344849E+00  0.201457224553E+00  0.214731478194E+00  0.228877531037E+00
  0.243952249087E+00  0.260016154231E+00  0.277133651929E+00  0.295373272075E+00  0.314807923630E+00
  0.335515163654E+00  0.357577481362E+00  0.381082597828E+00  0.406123781941E+00  0.432800183223E+00
  0.461217182077E+00  0.491486758006E+00  0.523727876296E+00  0.558066893609E+00  0.594637982838E+00
  0.633583577492E+00  0.675054835780E+00  0.719212124397E+00  0.766225521871E+00  0.816275341115E+00
  0.869552670617E+00  0.926259933382E+00  0.986611462470E+00  0.105083409153E+01  0.111916775836E+01
  0.119186611893E+01  0.126919716877E+01  0.135144386794E+01  0.143890476500E+01  0.153189461446E+01
  0.163074498123E+01  0.173580482449E+01  0.184744105175E+01  0.196603903292E+01  0.209200306188E+01
  0.222575675164E+01  0.236774334674E+01  0.251842593423E+01  0.267828753175E+01  0.284783102847E+01
  0.302757895101E+01  0.321807302284E+01  0.341987348171E+01  0.363355811502E+01  0.385972096801E+01
  0.409897067455E+01  0.435192835423E+01  0.461922501346E+01  0.490149838124E+01  0.519938910360E+01
  0.551353621288E+01  0.584457178070E+01  0.619311465524E+01  0.655976317594E+01  0.694508675078E+01
  0.734961617436E+01  0.777383255834E+01  0.821815474083E+01  0.868292503772E+01  0.916839319799E+01
  0.967469842706E+01  0.102018493486E+02  0.107497017868E+02  0.113179342687E+02  0.119060211742E+02
  0.125132034947E+02  0.131384572138E+02  0.137804593840E+02  0.144375520531E+02  0.151077042993E+02
  0.157884727511E+02  0.164769611258E+02  0.171697794964E+02  0.178630042146E+02  0.185521396669E+02
  0.192320833308E+02  0.198970959292E+02  0.205407788485E+02  0.211560613942E+02  0.217352008914E+02
  0.222697990974E+02  0.227508388489E+02  0.231687453074E+02  0.235134765500E+02  0.237746485349E+02
  0.239416995983E+02  0.240040995304E+02  0.239516078399E+02  0.237745849417E+02  0.234643585448E+02
  0.230136453341E+02  0.224170249518E+02  0.216714591116E+02  0.207768432448E+02  0.197365712202E+02
  0.185580852918E+02  0.172533734821E+02  0.158393652244E+02  0.143381635810E+02  0.127770393322E+02
  0.111880996988E+02  0.960753389474E+01  0.807433122385E+01  0.662836784168E+01  0.530776920483E+01
  0.414548099969E+01  0.316502702720E+01  0.237550351802E+01  0.176593130891E+01  0.130434654828E+01
  0.957121263342E+00  0.697595927678E+00  0.504902863245E+00  0.362808374427E+00  0.258764649360E+00
  0.183137262461E+00  0.128579424737E+00  0.895283614314E-01  0.618027622140E-01  0.422833185192E-01
  0.286610534531E-01  0.192405503402E-01  0.127872843111E-01  0.841010846730E-02  0.547153426134E-02
  0.351980722282E-02  0.223792919353E-02  0.140574191890E-02  0.871986936622E-03  0.533915010872E-03
  0.322554672209E-03  0.192181825685E-03  0.112876435070E-03  0.653241708067E-04  0.372317009814E-04
  0.208880375642E-04  0.115290169750E-04  0.625670760125E-05  0.333650157157E-05  0.174721018187E-05
  0.897857917325E-06  0.452443055789E-06  0.223401327275E-06  0.108002318040E-06  0.510806143059E-07
  0.236154874071E-07  0.106632759027E-07
 local pseudopotential core
 -0.391930077187E+03 -0.391930498247E+03 -0.391930906038E+03 -0.391931300978E+03 -0.391931683470E+03
 -0.391932053905E+03 -0.391932412664E+03 -0.391932760112E+03 -0.391933096606E+03 -0.391933422489E+03
 -0.391933738095E+03 -0.391934043747E+03 -0.391934339756E+03 -0.391934626426E+03 -0.391934904050E+03
 -0.391935172911E+03 -0.391935433284E+03 -0.391935685436E+03 -0.391935929622E+03 -0.391936166094E+03
 -0.391936395091E+03 -0.391936616848E+03 -0.391936831591E+03 -0.391937039539E+03 -0.391937240903E+03
 -0.391937435889E+03 -0.391937624695E+03 -0.391937807514E+03 -0.391937984530E+03 -0.391938155924E+03
 -0.391938321870E+03 -0.391938482536E+03 -0.391938638084E+03 -0.391938788672E+03 -0.391938934453E+03
 -0.391939075573E+03 -0.391939212175E+03 -0.391939344395E+03 -0.391939472367E+03 -0.391939596220E+03
 -0.391939716075E+03 -0.391939832054E+03 -0.391939944272E+03 -0.391940052839E+03 -0.391940157864E+03
 -0.391940259449E+03 -0.391940357694E+03 -0.391940452695E+03 -0.391940544545E+03 -0.391940633331E+03
 -0.391940719140E+03 -0.391940802052E+03 -0.391940882147E+03 -0.391940959500E+03 -0.391941034181E+03
 -0.391941106261E+03 -0.391941175804E+03 -0.391941242872E+03 -0.391941307525E+03 -0.391941369819E+03
 -0.391941429807E+03 -0.391941487538E+03 -0.391941543059E+03 -0.391941596415E+03 -0.391941647645E+03
 -0.391941696788E+03 -0.391941743877E+03 -0.391941788943E+03 -0.391941832016E+03 -0.391941873120E+03
 -0.391941912276E+03 -0.391941949502E+03 -0.391941984813E+03 -0.391942018221E+03 -0.391942049733E+03
 -0.391942079353E+03 -0.391942107080E+03 -0.391942132912E+03 -0.391942156841E+03 -0.391942178854E+03
 -0.391942198934E+03 -0.391942217062E+03 -0.391942233210E+03 -0.391942247349E+03 -0.391942259442E+03
 -0.391942269448E+03 -0.391942277320E+03 -0.391942283005E+03 -0.391942286444E+03 -0.391942287571E+03
 -0.391942286312E+03 -0.391942282588E+03 -0.391942276311E+03 -0.391942267385E+03 -0.391942255705E+03
 -0.391942241158E+03 -0.391942223619E+03 -0.391942202954E+03 -0.391942179020E+03 -0.391942151660E+03
 -0.391942120706E+03 -0.391942085977E+03 -0.391942047276E+03 -0.391942004396E+03 -0.391941957110E+03
 -0.391941905177E+03 -0.391941848338E+03 -0.391941786314E+03 -0.391941718809E+03 -0.391941645503E+03
 -0.391941566055E+03 -0.391941480100E+03 -0.391941387248E+03 -0.391941287081E+03 -0.391941179152E+03
 -0.391941062986E+03 -0.391940938071E+03 -0.391940803864E+03 -0.391940659783E+03 -0.391940505207E+03
 -0.391940339473E+03 -0.391940161874E+03 -0.391939971653E+03 -0.391939768005E+03 -0.391939550068E+03
 -0.391939316926E+03 -0.391939067598E+03 -0.391938801038E+03 -0.391938516132E+03 -0.391938211691E+03
 -0.391937886444E+03 -0.391937539040E+03 -0.391937168034E+03 -0.391936771886E+03 -0.391936348955E+03
 -0.391935897490E+03 -0.391935415623E+03 -0.391934901362E+03 -0.391934352584E+03 -0.391933767025E+03
 -0.391933142270E+03 -0.391932475744E+03 -0.391931764701E+03 -0.391931006215E+03 -0.391930197165E+03
 -0.391929334222E+03 -0.391928413838E+03 -0.391927432231E+03 -0.391926385366E+03 -0.391925268944E+03
 -0.391924078380E+03 -0.391922808784E+03 -0.391921454947E+03 -0.391920011312E+03 -0.391918471954E+03
 -0.391916830559E+03 -0.391915080394E+03 -0.391913214281E+03 -0.391911224568E+03 -0.391909103095E+03
 -0.391906841166E+03 -0.391904429509E+03 -0.391901858237E+03 -0.391899116814E+03 -0.391896194004E+03
 -0.391893077831E+03 -0.391889755527E+03 -0.391886213480E+03 -0.391882437180E+03 -0.391878411157E+03
 -0.391874118923E+03 -0.391869542896E+03 -0.391864664337E+03 -0.391859463268E+03 -0.391853918392E+03
 -0.391848007008E+03 -0.391841704913E+03 -0.391834986310E+03 -0.391827823698E+03 -0.391820187762E+03
 -0.391812047251E+03 -0.391803368855E+03 -0.391794117064E+03 -0.391784254029E+03 -0.391773739403E+03
 -0.391762530179E+03 -0.391750580517E+03 -0.391737841553E+03 -0.391724261204E+03 -0.391709783956E+03
 -0.391694350638E+03 -0.391677898183E+03 -0.391660359370E+03 -0.391641662557E+03 -0.391621731382E+03
 -0.391600484466E+03 -0.391577835073E+03 -0.391553690768E+03 -0.391527953040E+03 -0.391500516908E+03
 -0.391471270495E+03 -0.391440094582E+03 -0.391406862128E+03 -0.391371437761E+03 -0.391333677236E+03
 -0.391293426861E+03 -0.391250522879E+03 -0.391204790823E+03 -0.391156044815E+03 -0.391104086837E+03
 -0.391048705940E+03 -0.390989677416E+03 -0.390926761913E+03 -0.390859704492E+03 -0.390788233632E+03
 -0.390712060167E+03 -0.390630876166E+03 -0.390544353731E+03 -0.390452143737E+03 -0.390353874485E+03
 -0.390249150282E+03 -0.390137549924E+03 -0.390018625106E+03 -0.389891898722E+03 -0.389756863081E+03
 -0.389612978004E+03 -0.389459668825E+03 -0.389296324277E+03 -0.389122294249E+03 -0.388936887438E+03
 -0.388739368852E+03 -0.388528957199E+03 -0.388304822122E+03 -0.388066081305E+03 -0.387811797420E+03
 -0.387540974932E+03 -0.387252556746E+03 -0.386945420693E+03 -0.386618375865E+03 -0.386270158778E+03
 -0.385899429381E+03 -0.385504766899E+03 -0.385084665518E+03 -0.384637529910E+03 -0.384161670617E+03
 -0.383655299276E+03 -0.383116523721E+03 -0.382543342961E+03 -0.381933642047E+03 -0.381285186855E+03
 -0.380595618804E+03 -0.379862449532E+03 -0.379083055568E+03 -0.378254673034E+03 -0.377374392421E+03
 -0.376439153484E+03 -0.375445740319E+03 -0.374390776684E+03 -0.373270721627E+03 -0.372081865519E+03
 -0.370820326572E+03 -0.369482047939E+03 -0.368062795528E+03 -0.366558156632E+03 -0.364963539532E+03
 -0.363274174217E+03 -0.361485114394E+03 -0.359591240978E+03 -0.357587267269E+03 -0.355467746048E+03
 -0.353227078862E+03 -0.350859527791E+03 -0.348359230047E+03 -0.345720215792E+03 -0.342936429672E+03
 -0.340001756607E+03 -0.336910052547E+03 -0.333655181030E+03 -0.330231056607E+03 -0.326631696444E+03
 -0.322851281765E+03 -0.318884231210E+03 -0.314725288690E+03 -0.310369628939E+03 -0.305812984612E+03
 -0.301051799484E+03 -0.296083412919E+03 -0.290906281072E+03 -0.285520240053E+03 -0.279926814835E+03
 -0.274129574358E+03 -0.268134526865E+03 -0.261950538603E+03 -0.255589742450E+03 -0.249067881091E+03
 -0.242404507773E+03 -0.235622963424E+03 -0.228750097787E+03 -0.221815851271E+03 -0.214853065254E+03
 -0.207898054141E+03 -0.200992010101E+03 -0.194181502853E+03 -0.187513569847E+03 -0.181021518355E+03
 -0.174712903477E+03 -0.168604602292E+03 -0.163291933339E+03 -0.158484253532E+03 -0.154166278747E+03
 -0.150034380956E+03 -0.145307373367E+03 -0.140729988705E+03 -0.136297083155E+03 -0.132004020152E+03
 -0.127846335961E+03 -0.123819718603E+03 -0.119920004566E+03 -0.116143170338E+03 -0.112485328620E+03
 -0.108942717092E+03 -0.105511697859E+03 -0.102188747776E+03 -0.989704593888E+02 -0.958535329151E+02
 -0.928347738250E+02 -0.899110888617E+02 -0.870794827266E+02 -0.843370547601E+02 -0.816809958914E+02
 -0.791085848406E+02 -0.766171886290E+02 -0.742042545909E+02 -0.718673117015E+02 -0.696039667129E+02
 -0.674119017130E+02 -0.652888718789E+02 -0.632327030892E+02 -0.612412897590E+02 -0.593125926053E+02
 -0.574446365672E+02 -0.556355087825E+02 -0.538833566078E+02 -0.521863857373E+02 -0.505428583468E+02
 -0.489510913283E+02 -0.474094545679E+02
 pspotential valence only
 -0.294856462980E+03 -0.294856884057E+03 -0.294857291866E+03 -0.294857686825E+03 -0.294858069337E+03
 -0.294858439795E+03 -0.294858798576E+03 -0.294859146049E+03 -0.294859482569E+03 -0.294859808481E+03
 -0.294860124116E+03 -0.294860429800E+03 -0.294860725843E+03 -0.294861012549E+03 -0.294861290211E+03
 -0.294861559114E+03 -0.294861819531E+03 -0.294862071729E+03 -0.294862315965E+03 -0.294862552490E+03
 -0.294862781544E+03 -0.294863003361E+03 -0.294863218169E+03 -0.294863426185E+03 -0.294863627622E+03
 -0.294863822687E+03 -0.294864011576E+03 -0.294864194483E+03 -0.294864371594E+03 -0.294864543089E+03
 -0.294864709142E+03 -0.294864869922E+03 -0.294865025593E+03 -0.294865176311E+03 -0.294865322231E+03
 -0.294865463499E+03 -0.294865600258E+03 -0.294865732647E+03 -0.294865860798E+03 -0.294865984841E+03
 -0.294866104901E+03 -0.294866221097E+03 -0.294866333546E+03 -0.294866442360E+03 -0.294866547648E+03
 -0.294866649513E+03 -0.294866748058E+03 -0.294866843378E+03 -0.294866935567E+03 -0.294867024716E+03
 -0.294867110911E+03 -0.294867194235E+03 -0.294867274769E+03 -0.294867352590E+03 -0.294867427771E+03
 -0.294867500382E+03 -0.294867570492E+03 -0.294867638165E+03 -0.294867703463E+03 -0.294867766444E+03
 -0.294867827165E+03 -0.294867885677E+03 -0.294867942031E+03 -0.294867996274E+03 -0.294868048451E+03
 -0.294868098602E+03 -0.294868146767E+03 -0.294868192981E+03 -0.294868237276E+03 -0.294868279683E+03
 -0.294868320229E+03 -0.294868358936E+03 -0.294868395827E+03 -0.294868430918E+03 -0.294868464225E+03
 -0.294868495758E+03 -0.294868525526E+03 -0.294868553533E+03 -0.294868579780E+03 -0.294868604265E+03
 -0.294868626980E+03 -0.294868647917E+03 -0.294868667061E+03 -0.294868684392E+03 -0.294868699889E+03
 -0.294868713525E+03 -0.294868725265E+03 -0.294868735075E+03 -0.294868742911E+03 -0.294868748725E+03
 -0.294868752464E+03 -0.294868754069E+03 -0.294868753472E+03 -0.294868750601E+03 -0.294868745377E+03
 -0.294868737711E+03 -0.294868727509E+03 -0.294868714667E+03 -0.294868699073E+03 -0.294868680603E+03
 -0.294868659127E+03 -0.294868634501E+03 -0.294868606573E+03 -0.294868575177E+03 -0.294868540134E+03
 -0.294868501253E+03 -0.294868458329E+03 -0.294868411140E+03 -0.294868359449E+03 -0.294868303004E+03
 -0.294868241530E+03 -0.294868174738E+03 -0.294868102315E+03 -0.294868023927E+03 -0.294867939218E+03
 -0.294867847805E+03 -0.294867749279E+03 -0.294867643206E+03 -0.294867529118E+03 -0.294867406517E+03
 -0.294867274872E+03 -0.294867133614E+03 -0.294866982137E+03 -0.294866819793E+03 -0.294866645891E+03
 -0.294866459693E+03 -0.294866260412E+03 -0.294866047207E+03 -0.294865819183E+03 -0.294865575382E+03
 -0.294865314785E+03 -0.294865036302E+03 -0.294864738773E+03 -0.294864420959E+03 -0.294864081538E+03
 -0.294863719103E+03 -0.294863332150E+03 -0.294862919078E+03 -0.294862478176E+03 -0.294862007622E+03
 -0.294861505474E+03 -0.294860969658E+03 -0.294860397965E+03 -0.294859788039E+03 -0.294859137367E+03
 -0.294858443271E+03 -0.294857702894E+03 -0.294856913191E+03 -0.294856070915E+03 -0.294855172603E+03
 -0.294854214565E+03 -0.294853192866E+03 -0.294852103309E+03 -0.294850941422E+03 -0.294849702436E+03
 -0.294848381266E+03 -0.294846972492E+03 -0.294845470334E+03 -0.294843868633E+03 -0.294842160819E+03
 -0.294840339892E+03 -0.294838398385E+03 -0.294836328341E+03 -0.294834121276E+03 -0.294831768146E+03
 -0.294829259309E+03 -0.294826584486E+03 -0.294823732720E+03 -0.294820692330E+03 -0.294817450864E+03
 -0.294813995047E+03 -0.294810310729E+03 -0.294806382826E+03 -0.294802195257E+03 -0.294797730881E+03
 -0.294792971425E+03 -0.294787897413E+03 -0.294782488081E+03 -0.294776721297E+03 -0.294770573470E+03
 -0.294764019454E+03 -0.294757032444E+03 -0.294749583868E+03 -0.294741643274E+03 -0.294733178201E+03
 -0.294724154051E+03 -0.294714533947E+03 -0.294704278586E+03 -0.294693346077E+03 -0.294681691771E+03
 -0.294669268086E+03 -0.294656024308E+03 -0.294641906390E+03 -0.294626856734E+03 -0.294610813959E+03
 -0.294593712653E+03 -0.294575483111E+03 -0.294556051057E+03 -0.294535337344E+03 -0.294513257639E+03
 -0.294489722085E+03 -0.294464634945E+03 -0.294437894218E+03 -0.294409391238E+03 -0.294379010241E+03
 -0.294346627905E+03 -0.294312112871E+03 -0.294275325218E+03 -0.294236115920E+03 -0.294194326260E+03
 -0.294149787214E+03 -0.294102318791E+03 -0.294051729338E+03 -0.293997814802E+03 -0.293940357946E+03
 -0.293879127516E+03 -0.293813877363E+03 -0.293744345513E+03 -0.293670253176E+03 -0.293591303708E+03
 -0.293507181503E+03 -0.293417550830E+03 -0.293322054600E+03 -0.293220313067E+03 -0.293111922459E+03
 -0.292996453532E+03 -0.292873450050E+03 -0.292742427188E+03 -0.292602869850E+03 -0.292454230906E+03
 -0.292295929343E+03 -0.292127348333E+03 -0.291947833205E+03 -0.291756689340E+03 -0.291553179963E+03
 -0.291336523864E+03 -0.291105893018E+03 -0.290860410132E+03 -0.290599146104E+03 -0.290321117413E+03
 -0.290025283439E+03 -0.289710543719E+03 -0.289375735164E+03 -0.289019629228E+03 -0.288640929064E+03
 -0.288238266673E+03 -0.287810200076E+03 -0.287355210533E+03 -0.286871699829E+03 -0.286357987683E+03
 -0.285812309301E+03 -0.285232813123E+03 -0.284617558833E+03 -0.283964515661E+03 -0.283271561082E+03
 -0.282536479953E+03 -0.281756964203E+03 -0.280930613148E+03 -0.280054934556E+03 -0.279127346563E+03
 -0.278145180588E+03 -0.277105685364E+03 -0.276006032267E+03 -0.274843322089E+03 -0.273614593446E+03
 -0.272316833012E+03 -0.270946987786E+03 -0.269501979610E+03 -0.267978722168E+03 -0.266374140704E+03
 -0.264685194702E+03 -0.262908903788E+03 -0.261042377099E+03 -0.259082846381E+03 -0.257027703060E+03
 -0.254874539531E+03 -0.252621194897E+03 -0.250265805365E+03 -0.247806859495E+03 -0.245243258465E+03
 -0.242574381449E+03 -0.239800156185E+03 -0.236921134660E+03 -0.233938573728E+03 -0.230854520169E+03
 -0.227671899283E+03 -0.224394605370E+03 -0.221027591214E+03 -0.217576951716E+03 -0.214049993644E+03
 -0.210455278507E+03 -0.206802617958E+03 -0.203102990148E+03 -0.199368330459E+03 -0.195611132767E+03
 -0.191843784657E+03 -0.188077570871E+03 -0.184321351030E+03 -0.180580098755E+03 -0.176853781447E+03
 -0.173137272806E+03 -0.169421574218E+03 -0.165694845374E+03 -0.161938978415E+03 -0.158118023909E+03
 -0.154169996740E+03 -0.150046849657E+03 -0.146289182919E+03 -0.142567494750E+03 -0.138848423319E+03
 -0.135135028645E+03 -0.131492451834E+03 -0.127910088109E+03 -0.124392250967E+03 -0.120942836497E+03
 -0.117564995964E+03 -0.114261180030E+03 -0.111033191611E+03 -0.107882229820E+03 -0.104808928883E+03
 -0.101813357939E+03 -0.988950254783E+02 -0.960528641331E+02 -0.932852496366E+02 -0.905900512700E+02
 -0.879647408000E+02 -0.854065555903E+02 -0.829127006751E+02 -0.804805588534E+02 -0.781078763384E+02
 -0.757928952373E+02 -0.735344224050E+02 -0.713318202593E+02 -0.691849510394E+02 -0.670940636306E+02
 -0.650596532866E+02 -0.630823025244E+02 -0.611625178369E+02 -0.593005766677E+02 -0.574964001439E+02
 -0.557494665273E+02 -0.540587764536E+02 -0.524228734867E+02 -0.508399139783E+02 -0.493077717207E+02
 -0.478241582256E+02 -0.463867397896E+02
 core charge-density (pseudized)
  0.544505527949E-08  0.580493204073E-08  0.618859391988E-08  0.659761293238E-08  0.703366499192E-08
  0.749853677735E-08  0.799413305337E-08  0.852248447517E-08  0.908575590877E-08  0.968625530138E-08
  0.103264431379E-07  0.110089425227E-07  0.117365499272E-07  0.125122466485E-07  0.133392110245E-07
  0.142208314572E-07  0.151607202961E-07  0.161627286397E-07  0.172309621145E-07  0.183697976977E-07
  0.195839016516E-07  0.208782486425E-07  0.222581421246E-07  0.237292360698E-07  0.252975581344E-07
  0.269695343571E-07  0.287520154884E-07  0.306523050614E-07  0.326781893170E-07  0.348379691072E-07
  0.371404939069E-07  0.395951980738E-07  0.422121395046E-07  0.450020408462E-07  0.479763334303E-07
  0.511472041126E-07  0.545276452064E-07  0.581315077178E-07  0.619735580985E-07  0.660695387492E-07
  0.704362325230E-07  0.750915314911E-07  0.800545102531E-07  0.853455040935E-07  0.909861923030E-07
  0.969996870067E-07  0.103410627864E-06  0.110245283026E-06  0.117531656765E-06  0.125299604223E-06
  0.133580953734E-06  0.142409637240E-06  0.151821829323E-06  0.161856095424E-06  0.172553549861E-06
  0.183958024291E-06  0.196116247301E-06  0.209078035877E-06  0.222896499518E-06  0.237628257847E-06
  0.253333672602E-06  0.270077094962E-06  0.287927129210E-06  0.306956913837E-06  0.327244421210E-06
  0.348872777057E-06  0.371930601058E-06  0.396512369950E-06  0.422718804633E-06  0.450657282854E-06
  0.480442279172E-06  0.512195833995E-06  0.546048053618E-06  0.582137643315E-06  0.620612475647E-06
  0.661630196353E-06  0.705358870260E-06  0.751977669902E-06  0.801677609635E-06  0.854662328279E-06
  0.911148923479E-06  0.971368841207E-06  0.103556882406E-05  0.110401192222E-05  0.117697857124E-05
  0.125476774102E-05  0.133769816078E-05  0.142610962496E-05  0.152036438537E-05  0.162084863545E-05
  0.172797409255E-05  0.184217968475E-05  0.196393334925E-05  0.209373394954E-05  0.223211331926E-05
  0.237963844117E-05  0.253691377012E-05  0.270458370944E-05  0.288333525112E-05  0.307390079035E-05
  0.327706112610E-05  0.349364865996E-05  0.372455080639E-05  0.397071362828E-05  0.423314571280E-05
  0.451292230331E-05  0.481118970431E-05  0.512916997748E-05  0.546816594795E-05  0.582956654145E-05
  0.621485247402E-05  0.662560231769E-05  0.706349896690E-05  0.753033653217E-05  0.802802768923E-05
  0.855861151361E-05  0.912426183291E-05  0.972729613078E-05  0.103701850391E-04  0.110555624572E-04
  0.117862363395E-04  0.125652001960E-04  0.133956453515E-04  0.142809740158E-04  0.152248132162E-04
  0.162310296503E-04  0.173037455198E-04  0.184473554100E-04  0.196665442836E-04  0.209663066627E-04
  0.223519670772E-04  0.238292018634E-04  0.254040624015E-04  0.270829998864E-04  0.288728917347E-04
  0.307810697333E-04  0.328153500458E-04  0.349840651995E-04  0.372960981822E-04  0.397609187881E-04
  0.423886223619E-04  0.451899710974E-04  0.481764380601E-04  0.513602541118E-04  0.547544579288E-04
  0.583729493169E-04  0.622305460399E-04  0.663430443922E-04  0.707272837612E-04  0.754012154426E-04
  0.803839759852E-04  0.856959653654E-04  0.913589303049E-04  0.973960530707E-04  0.103832046115E-03
  0.110693252936E-03  0.118007755575E-03  0.125805489161E-03  0.134118363998E-03  0.142980395649E-03
  0.152427843567E-03  0.162499358815E-03  0.173236141467E-03  0.184682108324E-03  0.196884071613E-03
  0.209891929376E-03  0.223758868313E-03  0.238541579874E-03  0.254300490473E-03  0.271100006708E-03
  0.289008776575E-03  0.308099967694E-03  0.328451563635E-03  0.350146679503E-03  0.373273898010E-03
  0.397927627346E-03  0.424208482214E-03  0.452223689513E-03  0.482087520216E-03  0.513921749090E-03
  0.547856144005E-03  0.584028986677E-03  0.622587626801E-03  0.663689071646E-03  0.707500613280E-03
  0.754200495753E-03  0.803978624662E-03  0.857037321665E-03  0.913592126657E-03  0.973872650456E-03
  0.103812348099E-02  0.110660514614E-02  0.117959513654E-02  0.125738899183E-02  0.134030145389E-02
  0.142866769101E-02  0.152284459672E-02  0.162321216768E-02  0.173017496457E-02  0.184416366076E-02
  0.196563668304E-02  0.209508194931E-02  0.223301870799E-02  0.237999948420E-02  0.253661213758E-02
  0.270348203710E-02  0.288127435781E-02  0.307069650472E-02  0.327250066899E-02  0.348748652126E-02
  0.371650404712E-02  0.396045652911E-02  0.422030367957E-02  0.449706492817E-02  0.479182286722E-02
  0.510572685744E-02  0.543999679566E-02  0.579592704518E-02  0.617489052801E-02  0.657834297677E-02
  0.700782734215E-02  0.746497834980E-02  0.795152719784E-02  0.846930638320E-02  0.902025464178E-02
  0.960642198310E-02  0.102299747957E-01  0.108932009943E-01  0.115985151726E-01  0.123484637211E-01
  0.131457298574E-01  0.139931385109E-01  0.148936609919E-01  0.158504193620E-01  0.168666904120E-01
  0.179459091362E-01  0.190916715764E-01  0.203077368876E-01  0.215980284600E-01  0.229666339033E-01
  0.244178036770E-01  0.259559481176E-01  0.275856325834E-01  0.293115704005E-01  0.311386132554E-01
  0.330717386352E-01  0.351160338722E-01  0.372766762967E-01  0.395589089520E-01  0.419680112646E-01
  0.445092640050E-01  0.471879078126E-01  0.500090944921E-01  0.529778302264E-01  0.560989097860E-01
  0.593768407577E-01  0.628157567557E-01  0.664193185379E-01  0.701906019126E-01  0.741319713095E-01
  0.782449378936E-01  0.825300011443E-01  0.869864729007E-01  0.916122830029E-01  0.964037658560E-01
  0.101355427512E+00  0.106459693233E+00  0.111706635966E+00  0.117083686793E+00  0.122575329164E+00
  0.128162779684E+00  0.133823659397E+00  0.139531660887E+00  0.145256218201E+00  0.150962188535E+00
  0.156609556909E+00  0.162153177616E+00  0.167542569176E+00  0.172721782694E+00  0.177629367051E+00
  0.182198457971E+00  0.186357021775E+00  0.190028288227E+00  0.193131410129E+00  0.195582389894E+00
  0.197295314684E+00  0.198183941420E+00  0.198163670151E+00  0.197153938209E+00  0.195081057087E+00
  0.191881497930E+00  0.187505608545E+00  0.181921713421E+00  0.175120507037E+00  0.167119598231E+00
  0.157967998791E+00  0.147750272076E+00  0.136589968228E+00  0.124651873319E+00  0.112142494986E+00
  0.993081038998E-01  0.864295598012E-01  0.738130884828E-01  0.617761633899E-01  0.506277098831E-01
  0.406420256660E-01  0.320261370287E-01  0.248808307575E-01  0.191563466488E-01  0.146448899097E-01
  0.111151823947E-01  0.837347987852E-02  0.625966107547E-02  0.464239403979E-02  0.341479414598E-02
  0.249056221302E-02  0.180058462899E-02  0.128997086562E-02  0.915498386096E-03  0.643431178165E-03
  0.447675966828E-03  0.308239470146E-03  0.209950559032E-03  0.141412626015E-03  0.941535836287E-04
  0.619434963387E-04  0.402527120530E-04  0.258263519629E-04  0.163540147513E-04  0.102164522048E-04
  0.629370085261E-05  0.382165637292E-05  0.228632446535E-05  0.134696482594E-05  0.781065050487E-06
  0.445552504196E-06  0.249888604379E-06  0.137711946974E-06  0.745251307456E-07  0.395781332026E-07
  0.206125972854E-07  0.105202834928E-07  0.525801902285E-08  0.257152561927E-08  0.122970182231E-08
  0.574524032880E-09  0.262040472702E-09
 pseudo wavefunction
  0.301567090652E-03  0.311373299930E-03  0.321498382650E-03  0.331952707780E-03  0.342746981460E-03
  0.353892257965E-03  0.365399951029E-03  0.377281845533E-03  0.389550109569E-03  0.402217306909E-03
  0.415296409863E-03  0.428800812571E-03  0.442744344715E-03  0.457141285684E-03  0.472006379195E-03
  0.487354848397E-03  0.503202411452E-03  0.519565297641E-03  0.536460263979E-03  0.553904612374E-03
  0.571916207353E-03  0.590513494346E-03  0.609715518585E-03  0.629541944603E-03  0.650013076375E-03
  0.671149878106E-03  0.692973995705E-03  0.715507778950E-03  0.738774304375E-03  0.762797398906E-03
  0.787601664255E-03  0.813212502120E-03  0.839656140196E-03  0.866959659032E-03  0.895151019768E-03
  0.924259092766E-03  0.954313687174E-03  0.985345581456E-03  0.101738655491E-02  0.105046942021E-02
  0.108462805702E-02  0.111989744666E-02  0.115631370796E-02  0.119391413423E-02  0.123273723148E-02
  0.127282275779E-02  0.131421176409E-02  0.135694663616E-02  0.140107113805E-02  0.144663045691E-02
  0.149367124920E-02  0.154224168857E-02  0.159239151511E-02  0.164417208629E-02  0.169763642962E-02
  0.175283929687E-02  0.180983722019E-02  0.186868856997E-02  0.192945361464E-02  0.199219458235E-02
  0.205697572473E-02  0.212386338266E-02  0.219292605420E-02  0.226423446475E-02  0.233786163945E-02
  0.241388297799E-02  0.249237633177E-02  0.257342208364E-02  0.265710323023E-02  0.274350546688E-02
  0.283271727546E-02  0.292483001488E-02  0.301993801471E-02  0.311813867172E-02  0.321953254964E-02
  0.332422348207E-02  0.343231867883E-02  0.354392883574E-02  0.365916824792E-02  0.377815492679E-02
  0.390101072097E-02  0.402786144092E-02  0.415883698783E-02  0.429407148655E-02  0.443370342291E-02
  0.457787578547E-02  0.472673621194E-02  0.488043714023E-02  0.503913596455E-02  0.520299519649E-02
  0.537218263134E-02  0.554687151985E-02  0.572724074552E-02  0.591347500768E-02  0.610576501054E-02
  0.630430765828E-02  0.650930625657E-02  0.672097072059E-02  0.693951778980E-02  0.716517124969E-02
  0.739816216071E-02  0.763872909465E-02  0.788711837864E-02  0.814358434713E-02  0.840838960197E-02
  0.868180528099E-02  0.896411133518E-02  0.925559681499E-02  0.955656016579E-02  0.986730953295E-02
  0.101881630768E-01  0.105194492977E-01  0.108615073718E-01  0.112146874975E-01  0.115793512533E-01
  0.119558719667E-01  0.123446350959E-01  0.127460386230E-01  0.131604934604E-01  0.135884238701E-01
  0.140302678964E-01  0.144864778128E-01  0.149575205836E-01  0.154438783391E-01  0.159460488678E-01
  0.164645461230E-01  0.169999007465E-01  0.175526606089E-01  0.181233913669E-01  0.187126770389E-01
  0.193211205990E-01  0.199493445895E-01  0.205979917534E-01  0.212677256874E-01  0.219592315145E-01
  0.226732165793E-01  0.234104111649E-01  0.241715692319E-01  0.249574691821E-01  0.257689146452E-01
  0.266067352907E-01  0.274717876655E-01  0.283649560576E-01  0.292871533870E-01  0.302393221241E-01
  0.312224352375E-01  0.322374971701E-01  0.332855448465E-01  0.343676487111E-01  0.354849137974E-01
  0.366384808317E-01  0.378295273688E-01  0.390592689631E-01  0.403289603751E-01  0.416398968136E-01
  0.429934152155E-01  0.443908955640E-01  0.458337622445E-01  0.473234854416E-01  0.488615825759E-01
  0.504496197826E-01  0.520892134326E-01  0.537820316957E-01  0.555297961492E-01  0.573342834296E-01
  0.591973269308E-01  0.611208185469E-01  0.631067104624E-01  0.651570169892E-01  0.672738164500E-01
  0.694592531106E-01  0.717155391587E-01  0.740449567316E-01  0.764498599903E-01  0.789326772424E-01
  0.814959131108E-01  0.841421507491E-01  0.868740541024E-01  0.896943702118E-01  0.926059315619E-01
  0.956116584686E-01  0.987145615058E-01  0.101917743967E+00  0.105224404363E+00  0.108637838939E+00
  0.112161444234E+00  0.115798719637E+00  0.119553269980E+00  0.123428808122E+00  0.127429157540E+00
  0.131558254916E+00  0.135820152696E+00  0.140219021630E+00  0.144759153269E+00  0.149444962408E+00
  0.154280989459E+00  0.159271902739E+00  0.164422500658E+00  0.169737713776E+00  0.175222606708E+00
  0.180882379866E+00  0.186722370983E+00  0.192748056408E+00  0.198965052129E+00  0.205379114481E+00
  0.211996140495E+00  0.218822167856E+00  0.225863374387E+00  0.233126077023E+00  0.240616730209E+00
  0.248341923632E+00  0.256308379225E+00  0.264522947357E+00  0.272992602094E+00  0.281724435447E+00
  0.290725650484E+00  0.300003553174E+00  0.309565542831E+00  0.319419101005E+00  0.329571778651E+00
  0.340031181396E+00  0.350804952714E+00  0.361900754772E+00  0.373326246739E+00  0.385089060282E+00
  0.397196771976E+00  0.409656872333E+00  0.422476731117E+00  0.435663558593E+00  0.449224362327E+00
  0.463165899128E+00  0.477494621694E+00  0.492216619474E+00  0.507337553256E+00  0.522862582917E+00
  0.538796287779E+00  0.555142578945E+00  0.571904602966E+00  0.589084636175E+00  0.606683968944E+00
  0.624702779159E+00  0.643139994113E+00  0.661993140049E+00  0.681258178547E+00  0.700929328949E+00
  0.720998876037E+00  0.741456962177E+00  0.762291363219E+00  0.783487247459E+00  0.805026917120E+00
  0.826889531855E+00  0.849050814017E+00  0.871482735572E+00  0.894153186836E+00  0.917025627522E+00
  0.940058720970E+00  0.963205952909E+00  0.986415236676E+00  0.100962850749E+01  0.103278130917E+01
  0.105580237765E+01  0.107861322672E+01  0.110112774263E+01  0.112325179577E+01  0.114488287919E+01
  0.116590978549E+01  0.118621233596E+01  0.120566117782E+01  0.122411766818E+01  0.124143386597E+01
  0.125745265589E+01  0.127200803169E+01  0.128492556903E+01  0.129602312127E+01  0.130511177443E+01
  0.131199710037E+01  0.131648074889E+01  0.131836242105E+01  0.131744226576E+01  0.131352374031E+01
  0.130641697150E+01  0.129594264790E+01  0.128193646351E+01  0.126425411915E+01  0.124277686807E+01
  0.121741756732E+01  0.118812716310E+01  0.115490149797E+01  0.111778827751E+01  0.107689397525E+01
  0.103239038484E+01  0.984520450249E+00  0.933602918036E+00  0.880035263249E+00  0.824294247238E+00
  0.766933376697E+00  0.708576458630E+00  0.649906397002E+00  0.591648369685E+00  0.534546578433E+00
  0.479333903740E+00  0.426694047934E+00  0.377216143597E+00  0.331342370983E+00  0.289309895161E+00
  0.251105885069E+00  0.216607859968E+00  0.185679476916E+00  0.158150758985E+00  0.133825030251E+00
  0.112486059215E+00  0.939047204663E-01  0.778450602533E-01  0.640696853993E-01  0.523444278461E-01
  0.424422664023E-01  0.341465115019E-01  0.272532785808E-01  0.215732908774E-01  0.169330645738E-01
  0.131755381720E-01  0.101602146432E-01  0.776288887454E-02  0.587503461719E-02  0.440292428835E-02
  0.326655189987E-02  0.239842428802E-02  0.174227917708E-02  0.125178093230E-02  0.889236654511E-03
  0.624366956866E-03  0.433157657640E-03  0.296810913317E-03  0.200807240738E-03  0.134083499397E-03
  0.883265030854E-04  0.573775179776E-04  0.367396083881E-04  0.231775736666E-04  0.143990017315E-04
  0.880460466025E-05  0.529632425239E-05  0.313251411724E-05  0.182064160902E-05  0.103925208747E-05
  0.582274003150E-06  0.320023562622E-06
 ae wavefunction
  0.166459298943E-01  0.170948080136E-01  0.175555750807E-01  0.180285343739E-01  0.185139961618E-01
  0.190122778186E-01  0.195237039391E-01  0.200486064513E-01  0.205873247273E-01  0.211402056925E-01
  0.217076039318E-01  0.222898817925E-01  0.228874094846E-01  0.235005651767E-01  0.241297350874E-01
  0.247753135719E-01  0.254377032033E-01  0.261173148474E-01  0.268145677308E-01  0.275298895017E-01
  0.282637162822E-01  0.290164927111E-01  0.297886719782E-01  0.305807158458E-01  0.313930946602E-01
  0.322262873489E-01  0.330807814051E-01  0.339570728567E-01  0.348556662186E-01  0.357770744278E-01
  0.367218187601E-01  0.376904287257E-01  0.386834419430E-01  0.397014039891E-01  0.407448682255E-01
  0.418143955954E-01  0.429105543940E-01  0.440339200057E-01  0.451850746099E-01  0.463646068508E-01
  0.475731114684E-01  0.488111888913E-01  0.500794447844E-01  0.513784895520E-01  0.527089377917E-01
  0.540714076965E-01  0.554665204016E-01  0.568948992725E-01  0.583571691308E-01  0.598539554136E-01
  0.613858832631E-01  0.629535765414E-01  0.645576567663E-01  0.661987419639E-01  0.678774454323E-01
  0.695943744122E-01  0.713501286585E-01  0.731452989070E-01  0.749804652311E-01  0.768561952826E-01
  0.787730424087E-01  0.807315436411E-01  0.827322175477E-01  0.847755619416E-01  0.868620514401E-01
  0.889921348641E-01  0.911662324727E-01  0.933847330229E-01  0.956479906466E-01  0.979563215364E-01
  0.100310000431E+00  0.102709256891E+00  0.105154271359E+00  0.107645170984E+00  0.110182025218E+00
  0.112764841157E+00  0.115393558626E+00  0.118068045000E+00  0.120788089745E+00  0.123553398667E+00
  0.126363587870E+00  0.129218177401E+00  0.132116584580E+00  0.135058117003E+00  0.138041965207E+00
  0.141067194992E+00  0.144132739385E+00  0.147237390254E+00  0.150379789540E+00  0.153558420127E+00
  0.156771596328E+00  0.160017453990E+00  0.163293940216E+00  0.166598802702E+00  0.169929578688E+00
  0.173283583531E+00  0.176657898904E+00  0.180049360626E+00  0.183454546142E+00  0.186869761653E+00
  0.190291028935E+00  0.193714071849E+00  0.197134302580E+00  0.200546807633E+00  0.203946333628E+00
  0.207327272919E+00  0.210683649114E+00  0.214009102522E+00  0.217296875620E+00  0.220539798578E+00
  0.223730274959E+00  0.226860267650E+00  0.229921285147E+00  0.232904368300E+00  0.235800077628E+00
  0.238598481359E+00  0.241289144330E+00  0.243861117912E+00  0.246302931142E+00  0.248602583250E+00
  0.250747537798E+00  0.252724718648E+00  0.254520508015E+00  0.256120746865E+00  0.257510737935E+00
  0.258675251694E+00  0.259598535550E+00  0.260264326666E+00  0.260655868736E+00  0.260755933115E+00
  0.260546844704E+00  0.260010513030E+00  0.259128468939E+00  0.257881907405E+00  0.256251736898E+00
  0.254218635826E+00  0.251763116561E+00  0.248865597546E+00  0.245506484030E+00  0.241666257924E+00
  0.237325577330E+00  0.232465386222E+00  0.227067034795E+00  0.221112410933E+00  0.214584083254E+00
  0.207465456100E+00  0.199740936841E+00  0.191396115753E+00  0.182417958676E+00  0.172795012556E+00
  0.162517623878E+00  0.151578169843E+00  0.139971302047E+00  0.127694202192E+00  0.114746849228E+00
  0.101132297083E+00  0.868569619065E-01  0.719309175098E-01  0.563681973752E-01  0.401871013316E-01
  0.234105046481E-01  0.606616697168E-02 -0.118129618064E-01 -0.301884420160E-01 -0.490160546042E-01
 -0.682455254095E-01 -0.878202676331E-01 -0.107677147244E+00 -0.127746276555E+00 -0.147950841778E+00
 -0.168206971036E+00 -0.188423649960E+00 -0.208502692634E+00 -0.228338776147E+00 -0.247819547351E+00
 -0.266825810578E+00 -0.285231805069E+00 -0.302905580725E+00 -0.319709480500E+00 -0.335500737327E+00
 -0.350132192975E+00 -0.363453145530E+00 -0.375310331491E+00 -0.385549047432E+00 -0.394014415076E+00
 -0.400552792163E+00 -0.405013329802E+00 -0.407249674996E+00 -0.407121814723E+00 -0.404498055326E+00
 -0.399257128019E+00 -0.391290408069E+00 -0.380504231624E+00 -0.366822290342E+00 -0.350188079880E+00
 -0.330567374011E+00 -0.307950691782E+00 -0.282355720644E+00 -0.253829654117E+00 -0.222451398357E+00
 -0.188333598028E+00 -0.151624428430E+00 -0.112509097903E+00 -0.712110024582E-01 -0.279924735624E-01
  0.168449394781E-01  0.629607088171E-01  0.109976140994E+00  0.157475809505E+00  0.205009646625E+00
  0.252095728840E+00  0.298223787319E+00  0.342859473901E+00  0.385449411461E+00  0.425427050206E+00
  0.462219332646E+00  0.495254137435E+00  0.523968433826E+00  0.547817048325E+00  0.566281929045E+00
  0.578881783305E+00  0.585181948960E+00  0.584804339149E+00  0.577437279121E+00  0.562845037610E+00
  0.540876844928E+00  0.511475182809E+00  0.474683126513E+00  0.430650516838E+00  0.379638740180E+00
  0.322023900028E+00  0.258298174752E+00  0.189069175929E+00  0.115057149648E+00  0.370899004793E-01
 -0.439046368880E-01 -0.126908201047E+00 -0.210824344698E+00 -0.294492799228E+00 -0.376705842649E+00
 -0.456226304357E+00 -0.531806688327E+00 -0.602208848215E+00 -0.666223857011E+00 -0.722692224637E+00
 -0.770525078236E+00 -0.808726513555E+00 -0.836415903180E+00 -0.852848127636E+00 -0.857430534362E+00
 -0.849736570111E+00 -0.829516298125E+00 -0.796703749202E+00 -0.751420830435E+00 -0.693977499935E+00
 -0.624868069295E+00 -0.544763709986E+00 -0.454501421582E+00 -0.355069833831E+00 -0.247592271188E+00
 -0.133307530988E+00 -0.135488315206E-01  0.110278615890E+00  0.236720961909E+00  0.364299557871E+00
  0.491534839550E+00  0.616969822324E+00  0.739192781091E+00  0.856858699181E+00  0.968709087510E+00
  0.107358979640E+01  0.117046647017E+01  0.125843733231E+01  0.133674305423E+01  0.140477357729E+01
  0.146207193599E+01  0.150833533482E+01  0.154341388236E+01  0.156730738009E+01  0.158016040566E+01
  0.158225569423E+01  0.157400567714E+01  0.155594205159E+01  0.152870339652E+01  0.149302101822E+01
  0.144970335680E+01  0.139961935538E+01  0.134368123518E+01  0.128282712301E+01  0.121800396155E+01
  0.115015110718E+01  0.108018497985E+01  0.100898507424E+01  0.937381585826E+00  0.866144848597E+00
  0.795976713847E+00  0.727503943151E+00  0.661273630644E+00  0.597750615668E+00  0.537316797262E+00
  0.480272216477E+00  0.426837735341E+00  0.377159110642E+00  0.331312240778E+00  0.289309351507E+00
  0.251105885069E+00  0.216607859968E+00  0.185679476916E+00  0.158150758985E+00  0.133825030251E+00
  0.112486059215E+00  0.939047204663E-01  0.778450602533E-01  0.640696853993E-01  0.523444278461E-01
  0.424422664023E-01  0.341465115019E-01  0.272532785808E-01  0.215732908774E-01  0.169330645738E-01
  0.131755381720E-01  0.101602146432E-01  0.776288887454E-02  0.587503461719E-02  0.440292428835E-02
  0.326655189987E-02  0.239842428802E-02  0.174227917708E-02  0.125178093230E-02  0.889236654511E-03
  0.624366956866E-03  0.433157657640E-03  0.296810913317E-03  0.200807240738E-03  0.134083499397E-03
  0.883265030854E-04  0.573775179776E-04  0.367396083881E-04  0.231775736666E-04  0.143990017315E-04
  0.880460466025E-05  0.529632425239E-05  0.313251411724E-05  0.182064160902E-05  0.103925208747E-05
  0.582274003150E-06  0.320023562622E-06
 pseudo wavefunction
 -0.795303108369E-05 -0.821164378314E-05 -0.847866591930E-05 -0.875437094575E-05 -0.903904120808E-05
 -0.933296823300E-05 -0.963645302693E-05 -0.994980638421E-05 -0.102733492054E-04 -0.106074128259E-04
 -0.109523393551E-04 -0.113084820273E-04 -0.116762055625E-04 -0.120558865407E-04 -0.124479137872E-04
 -0.128526887710E-04 -0.132706260154E-04 -0.137021535233E-04 -0.141477132146E-04 -0.146077613796E-04
 -0.150827691457E-04 -0.155732229600E-04 -0.160796250874E-04 -0.166024941253E-04 -0.171423655341E-04
 -0.176997921858E-04 -0.182753449304E-04 -0.188696131800E-04 -0.194832055126E-04 -0.201167502955E-04
 -0.207708963282E-04 -0.214463135075E-04 -0.221436935129E-04 -0.228637505150E-04 -0.236072219072E-04
 -0.243748690600E-04 -0.251674781015E-04 -0.259858607218E-04 -0.268308550043E-04 -0.277033262839E-04
 -0.286041680330E-04 -0.295343027765E-04 -0.304946830361E-04 -0.314862923059E-04 -0.325101460593E-04
 -0.335672927888E-04 -0.346588150793E-04 -0.357858307168E-04 -0.369494938328E-04 -0.381509960857E-04
 -0.393915678813E-04 -0.406724796320E-04 -0.419950430579E-04 -0.433606125291E-04 -0.447705864530E-04
 -0.462264087053E-04 -0.477295701081E-04 -0.492816099565E-04 -0.508841175937E-04 -0.525387340383E-04
 -0.542471536638E-04 -0.560111259330E-04 -0.578324571886E-04 -0.597130125019E-04 -0.616547175814E-04
 -0.636595607442E-04 -0.657295949497E-04 -0.678669399017E-04 -0.700737842161E-04 -0.723523876611E-04
 -0.747050834692E-04 -0.771342807239E-04 -0.796424668243E-04 -0.822322100299E-04 -0.849061620871E-04
 -0.876670609416E-04 -0.905177335385E-04 -0.934610987129E-04 -0.965001701747E-04 -0.996380595895E-04
 -0.102877979760E-03 -0.106223247909E-03 -0.109677289072E-03 -0.113243639594E-03 -0.116925950746E-03
 -0.120727992453E-03 -0.124653657144E-03 -0.128706963731E-03 -0.132892061709E-03 -0.137213235393E-03
 -0.141674908291E-03 -0.146281647620E-03 -0.151038168961E-03 -0.155949341073E-03 -0.161020190854E-03
 -0.166255908467E-03 -0.171661852631E-03 -0.177243556075E-03 -0.183006731179E-03 -0.188957275782E-03
 -0.195101279189E-03 -0.201445028363E-03 -0.207995014316E-03 -0.214757938708E-03 -0.221740720649E-03
 -0.228950503729E-03 -0.236394663261E-03 -0.244080813760E-03 -0.252016816659E-03 -0.260210788269E-03
 -0.268671107990E-03 -0.277406426781E-03 -0.286425675902E-03 -0.295738075923E-03 -0.305353146021E-03
 -0.315280713567E-03 -0.325530924013E-03 -0.336114251083E-03 -0.347041507287E-03 -0.358323854753E-03
 -0.369972816402E-03 -0.382000287452E-03 -0.394418547292E-03 -0.407240271705E-03 -0.420478545462E-03
 -0.434146875308E-03 -0.448259203320E-03 -0.462829920680E-03 -0.477873881845E-03 -0.493406419143E-03
 -0.509443357789E-03 -0.526001031343E-03 -0.543096297608E-03 -0.560746554984E-03 -0.578969759285E-03
 -0.597784441020E-03 -0.617209723165E-03 -0.637265339398E-03 -0.657971652850E-03 -0.679349675327E-03
 -0.701421087057E-03 -0.724208256924E-03 -0.747734263216E-03 -0.772022914888E-03 -0.797098773322E-03
 -0.822987174604E-03 -0.849714252299E-03 -0.877306960726E-03 -0.905793098717E-03 -0.935201333865E-03
 -0.965561227223E-03 -0.996903258457E-03 -0.102925885142E-02 -0.106266040014E-02 -0.109714129513E-02
 -0.113273595011E-02 -0.116947982895E-02 -0.120740947286E-02 -0.124656252782E-02 -0.128697777209E-02
 -0.132869514375E-02 -0.137175576826E-02 -0.141620198584E-02 -0.146207737865E-02 -0.150942679758E-02
 -0.155829638856E-02 -0.160873361822E-02 -0.166078729875E-02 -0.171450761166E-02 -0.176994613048E-02
 -0.182715584176E-02 -0.188619116455E-02 -0.194710796768E-02 -0.200996358472E-02 -0.207481682624E-02
 -0.214172798877E-02 -0.221075886031E-02 -0.228197272154E-02 -0.235543434245E-02 -0.243120997355E-02
 -0.250936733110E-02 -0.258997557554E-02 -0.267310528222E-02 -0.275882840356E-02 -0.284721822158E-02
 -0.293834928955E-02 -0.303229736167E-02 -0.312913930913E-02 -0.322895302120E-02 -0.333181728953E-02
 -0.343781167373E-02 -0.354701634623E-02 -0.365951191401E-02 -0.377537921474E-02 -0.389469908442E-02
 -0.401755209356E-02 -0.414401824831E-02 -0.427417665296E-02 -0.440810512955E-02 -0.454587979008E-02
 -0.468757455636E-02 -0.483326062182E-02 -0.498300584945E-02 -0.513687409898E-02 -0.529492447611E-02
 -0.545721049563E-02 -0.562377914968E-02 -0.579466987130E-02 -0.596991338268E-02 -0.614953041633E-02
 -0.633353029633E-02 -0.652190936550E-02 -0.671464924302E-02 -0.691171489557E-02 -0.711305250327E-02
 -0.731858710020E-02 -0.752821996699E-02 -0.774182575128E-02 -0.795924928913E-02 -0.818030209835E-02
 -0.840475851175E-02 -0.863235141540E-02 -0.886276755414E-02 -0.909564236251E-02 -0.933055427621E-02
 -0.956701847482E-02 -0.980448000214E-02 -0.100423062062E-01 -0.102797784354E-01 -0.105160829232E-01
 -0.107503007859E-01 -0.109813970540E-01 -0.112082086509E-01 -0.114294312245E-01 -0.116436047318E-01
 -0.118490976679E-01 -0.120440898237E-01 -0.122265534488E-01 -0.123942326861E-01 -0.125446211384E-01
 -0.126749374183E-01 -0.127820985222E-01 -0.128626908641E-01 -0.129129387968E-01 -0.129286704375E-01
 -0.129052806153E-01 -0.128376907467E-01 -0.127203054486E-01 -0.125469656924E-01 -0.123108983099E-01
 -0.120046616653E-01 -0.116200873188E-01 -0.111482175253E-01 -0.105792384330E-01 -0.990240887983E-02
 -0.910598472686E-02 -0.817713872061E-02 -0.710187594421E-02 -0.586494500102E-02 -0.444974517725E-02
 -0.283822995611E-02 -0.101080740787E-02  0.105376183795E-02  0.337846811480E-02  0.598815655627E-02
  0.890962976708E-02  0.121717474945E-01  0.158055210584E-01  0.198441998244E-01  0.243233464654E-01
  0.292808971352E-01  0.347572019823E-01  0.407950406427E-01  0.474396064746E-01  0.547384523279E-01
  0.627413895833E-01  0.715003310444E-01  0.810690670514E-01  0.915029628977E-01  0.102858564325E+00
  0.115193096564E+00  0.128563841133E+00  0.143027373510E+00  0.158638643845E+00  0.175449882361E+00
  0.193509310955E+00  0.212859643092E+00  0.233536355531E+00  0.255565717977E+00  0.278962570796E+00
  0.303727846737E+00  0.329845840665E+00  0.357281241945E+00  0.385975958006E+00  0.415845774996E+00
  0.446776923042E+00  0.478622639684E+00  0.511199855993E+00  0.544286165727E+00  0.577617278517E+00
  0.610885202810E+00  0.643737451927E+00  0.675777615105E+00  0.706567681658E+00  0.735632546135E+00
  0.762467149620E+00  0.786546719467E+00  0.807334579742E+00  0.824403132115E+00  0.837652282445E+00
  0.847095219969E+00  0.852771553292E+00  0.854746328838E+00  0.853109139754E+00  0.847973266981E+00
  0.839474803242E+00  0.827771696599E+00  0.813042671320E+00  0.795485987514E+00  0.775317984357E+00
  0.752771380913E+00  0.728093254160E+00  0.701542663459E+00  0.673387844796E+00  0.643902974463E+00
  0.613364519007E+00  0.582047273268E+00  0.550220251210E+00  0.518142652414E+00  0.486060150449E+00
  0.454201728033E+00  0.422777234004E+00  0.391975748859E+00  0.361964776373E+00  0.332890177930E+00
  0.304876724467E+00  0.278029091139E+00  0.252433108430E+00  0.228157091294E+00  0.205253097496E+00
  0.183758013422E+00  0.163694423554E+00  0.145071279130E+00  0.127884431520E+00  0.112117127020E+00
  0.977405674517E-01  0.847146261284E-01
 ae wavefunction
 -0.485731856040E-02 -0.498830205382E-02 -0.512275475007E-02 -0.526076514523E-02 -0.540242377502E-02
 -0.554782324859E-02 -0.569705828191E-02 -0.585022573071E-02 -0.600742462286E-02 -0.616875619017E-02
 -0.633432389933E-02 -0.650423348209E-02 -0.667859296438E-02 -0.685751269427E-02 -0.704110536874E-02
 -0.722948605890E-02 -0.742277223366E-02 -0.762108378159E-02 -0.782454303076E-02 -0.803327476648E-02
 -0.824740624651E-02 -0.846706721369E-02 -0.869238990563E-02 -0.892350906130E-02 -0.916056192414E-02
 -0.940368824138E-02 -0.965303025939E-02 -0.990873271460E-02 -0.101709428197E-01 -0.104398102445E-01
 -0.107154870917E-01 -0.109981278665E-01 -0.112878894396E-01 -0.115849310034E-01 -0.118894140215E-01
 -0.122015021693E-01 -0.125213612668E-01 -0.128491592022E-01 -0.131850658457E-01 -0.135292529532E-01
 -0.138818940590E-01 -0.142431643561E-01 -0.146132405648E-01 -0.149923007875E-01 -0.153805243494E-01
 -0.157780916235E-01 -0.161851838405E-01 -0.166019828808E-01 -0.170286710483E-01 -0.174654308253E-01
 -0.179124446068E-01 -0.183698944126E-01 -0.188379615770E-01 -0.193168264136E-01 -0.198066678548E-01
 -0.203076630635E-01 -0.208199870162E-01 -0.213438120555E-01 -0.218793074105E-01 -0.224266386830E-01
 -0.229859672986E-01 -0.235574499189E-01 -0.241412378149E-01 -0.247374761983E-01 -0.253463035090E-01
 -0.259678506559E-01 -0.266022402099E-01 -0.272495855454E-01 -0.279099899292E-01 -0.285835455526E-01
 -0.292703325060E-01 -0.299704176919E-01 -0.306838536740E-01 -0.314106774602E-01 -0.321509092153E-01
 -0.329045509024E-01 -0.336715848482E-01 -0.344519722309E-01 -0.352456514866E-01 -0.360525366315E-01
 -0.368725154976E-01 -0.377054478781E-01 -0.385511635807E-01 -0.394094603845E-01 -0.402801018996E-01
 -0.411628153257E-01 -0.420572891074E-01 -0.429631704841E-01 -0.438800629335E-01 -0.448075235046E-01
 -0.457450600414E-01 -0.466921282946E-01 -0.476481289213E-01 -0.486124043725E-01 -0.495842356677E-01
 -0.505628390601E-01 -0.515473625910E-01 -0.525368825382E-01 -0.535303997597E-01 -0.545268359396E-01
 -0.555250297379E-01 -0.565237328541E-01 -0.575216060099E-01 -0.585172148616E-01 -0.595090258521E-01
 -0.604954020153E-01 -0.614745987470E-01 -0.624447595587E-01 -0.634039118329E-01 -0.643499626001E-01
 -0.652806943624E-01 -0.661937609881E-01 -0.670866837077E-01 -0.679568472437E-01 -0.688014961095E-01
 -0.696177311173E-01 -0.704025061376E-01 -0.711526251599E-01 -0.718647397035E-01 -0.725353466371E-01
 -0.731607864682E-01 -0.737372421680E-01 -0.742607386038E-01 -0.747271426563E-01 -0.751321641047E-01
 -0.754713573675E-01 -0.757401241950E-01 -0.759337174127E-01 -0.760472458231E-01 -0.760756803794E-01
 -0.760138617481E-01 -0.758565093870E-01 -0.755982322683E-01 -0.752335413813E-01 -0.747568641575E-01
 -0.741625609598E-01 -0.734449437867E-01 -0.725982973409E-01 -0.716169026144E-01 -0.704950631451E-01
 -0.692271340940E-01 -0.678075542938E-01 -0.662308814132E-01 -0.644918303727E-01 -0.625853151423E-01
 -0.605064940339E-01 -0.582508185916E-01 -0.558140861594E-01 -0.531924961848E-01 -0.503827102920E-01
 -0.473819161220E-01 -0.441878949048E-01 -0.407990926837E-01 -0.372146950639E-01 -0.334347053051E-01
 -0.294600255115E-01 -0.252925406102E-01 -0.209352047268E-01 -0.163921294900E-01 -0.116686737035E-01
 -0.677153372955E-02 -0.170883383419E-02  0.350978436216E-02  0.887307427962E-02  0.143680996735E-01
  0.199801539838E-01  0.256926850030E-01  0.314872262510E-01  0.373433365884E-01  0.432385497729E-01
  0.491483358525E-01  0.550460764886E-01  0.609030564807E-01  0.666884739167E-01  0.723694714661E-01
  0.779111913876E-01  0.832768568186E-01  0.884278818744E-01  0.933240130007E-01  0.979235039036E-01
  0.102183326230E+00  0.106059417977E+00  0.109506971396E+00  0.112480761854E+00  0.114935518802E+00
  0.116826339560E+00  0.118109146139E+00  0.118741184740E+00  0.118681566877E+00  0.117891850322E+00
  0.116336657188E+00  0.113984325516E+00  0.110807589688E+00  0.106784283842E+00  0.101898061284E+00
  0.961391216077E-01  0.895049359567E-01  0.820009595371E-01  0.736413191917E-01  0.644494626040E-01
  0.544587545239E-01  0.437130043679E-01  0.322669086733E-01  0.201863912501E-01  0.754882355726E-02
 -0.555689205623E-02 -0.190303929531E-01 -0.327600961259E-01 -0.466236211951E-01 -0.604884084053E-01
 -0.742125420238E-01 -0.876457887135E-01 -0.100630860179E+00 -0.113004908891E+00 -0.124601263531E+00
 -0.135251405221E+00 -0.144787176016E+00 -0.153043199817E+00 -0.159859486975E+00 -0.165084189046E+00
 -0.168576467140E+00 -0.170209432708E+00 -0.169873113361E+00 -0.167477389951E+00 -0.162954846184E+00
 -0.156263468766E+00 -0.147389133734E+00 -0.136347812992E+00 -0.123187433955E+00 -0.107989325049E+00
 -0.908691811035E-01 -0.719774857630E-01 -0.514993335801E-01 -0.296536025577E-01 -0.669143876430E-02
  0.171059720455E-01  0.414303554316E-01  0.659500135580E-01  0.903141736714E-01  0.114157956716E+00
  0.137107859572E+00  0.158787599770E+00  0.178824158289E+00  0.196853918676E+00  0.212528950312E+00
  0.225523614335E+00  0.235541543139E+00  0.242322623091E+00  0.245649375441E+00  0.245352383057E+00
  0.241314743375E+00  0.233475600952E+00  0.221832733122E+00  0.206444096387E+00  0.187428238230E+00
  0.164963525305E+00  0.139286202084E+00  0.110687346643E+00  0.795088228630E-01  0.461383442909E-01
  0.110037713458E-01 -0.254332346004E-01 -0.626840765093E-01 -0.100240482705E+00 -0.137582039703E+00
 -0.174183871979E+00 -0.209524342550E+00 -0.243092647470E+00 -0.274396177609E+00 -0.302967523314E+00
 -0.328371001312E+00 -0.350208589499E+00 -0.368125165662E+00 -0.381812965698E+00 -0.391015212207E+00
 -0.395528915204E+00 -0.395206900049E+00 -0.389959148076E+00 -0.379753516606E+00 -0.364615846177E+00
 -0.344629393218E+00 -0.319933494910E+00 -0.290721393509E+00 -0.257237201974E+00 -0.219772051533E+00
 -0.178659509461E+00 -0.134270381845E+00 -0.870070323483E-01 -0.372973551735E-01  0.144114588670E-01
  0.676592266231E-01  0.121979017759E+00  0.176903221750E+00  0.231969329427E+00  0.286725334168E+00
  0.340734674012E+00  0.393580649126E+00  0.444870266402E+00  0.494237480146E+00  0.541345812776E+00
  0.585890361558E+00  0.627599200800E+00  0.666234213614E+00  0.701591396322E+00  0.733500669773E+00
  0.761825295621E+00  0.786460950540E+00  0.807334579742E+00  0.824403132115E+00  0.837652282445E+00
  0.847095219969E+00  0.852771553292E+00  0.854746328838E+00  0.853109139754E+00  0.847973266981E+00
  0.839474803242E+00  0.827771696599E+00  0.813042671320E+00  0.795485987514E+00  0.775317984357E+00
  0.752771380913E+00  0.728093254160E+00  0.701542663459E+00  0.673387844796E+00  0.643902974463E+00
  0.613364519007E+00  0.582047273268E+00  0.550220251210E+00  0.518142652414E+00  0.486060150449E+00
  0.454201728033E+00  0.422777234004E+00  0.391975748859E+00  0.361964776373E+00  0.332890177930E+00
  0.304876724467E+00  0.278029091139E+00  0.252433108430E+00  0.228157091294E+00  0.205253097496E+00
  0.183758013422E+00  0.163694423554E+00  0.145071279130E+00  0.127884431520E+00  0.112117127020E+00
  0.977405674517E-01  0.847146261284E-01
 pseudo wavefunction
  0.179810442405E-07  0.191694545772E-07  0.204364098023E-07  0.217871011360E-07  0.232270628982E-07
  0.247621951855E-07  0.263987880460E-07  0.281435472519E-07  0.300036217762E-07  0.319866330846E-07
  0.341007063634E-07  0.363545038124E-07  0.387572601364E-07  0.413188203842E-07  0.440496802873E-07
  0.469610292653E-07  0.500647962731E-07  0.533736986788E-07  0.569012943718E-07  0.606620373145E-07
  0.646713367666E-07  0.689456204220E-07  0.735024017204E-07  0.783603516065E-07  0.835393750320E-07
  0.890606925143E-07  0.949469270854E-07  0.101222196987E-06  0.107912214494E-06  0.115044391264E-06
  0.122647950659E-06  0.130754047480E-06  0.139395895624E-06  0.148608904174E-06  0.158430822481E-06
  0.168901894841E-06  0.180065025390E-06  0.191965953901E-06  0.204653443194E-06  0.218179478942E-06
  0.232599482670E-06  0.247972538845E-06  0.264361636962E-06  0.281833929640E-06  0.300461007774E-06
  0.320319193866E-06  0.341489854750E-06  0.364059734985E-06  0.388121312278E-06  0.413773176401E-06
  0.441120433154E-06  0.470275135020E-06  0.501356740288E-06  0.534492602521E-06  0.569818492368E-06
  0.607479153869E-06  0.647628897529E-06  0.690432232579E-06  0.736064541039E-06  0.784712796318E-06
  0.836576329315E-06  0.891867645152E-06  0.950813293881E-06  0.101365479875E-05  0.108064964579E-05
  0.115207233887E-05  0.122821552439E-05  0.130939119037E-05  0.139593194480E-05  0.148819237842E-05
  0.158655051761E-05  0.169140937329E-05  0.180319859220E-05  0.192237621729E-05  0.204943056449E-05
  0.218488222347E-05  0.232928619069E-05  0.248323414340E-05  0.264735686387E-05  0.282232682393E-05
  0.300886094032E-05  0.320772351203E-05  0.341972935189E-05  0.364574712506E-05  0.388670290822E-05
  0.414358398388E-05  0.441744288556E-05  0.470940171025E-05  0.502065671589E-05  0.535248322270E-05
  0.570624083842E-05  0.608337902887E-05  0.648544305666E-05  0.691408031237E-05  0.737104706414E-05
  0.785821565333E-05  0.837758216571E-05  0.893127460955E-05  0.952156163425E-05  0.101508618251E-04
  0.108217536121E-04  0.115369858343E-04  0.122994890009E-04  0.131123872981E-04  0.139790113881E-04
  0.149029120549E-04  0.158878747507E-04  0.169379351048E-04  0.180573954562E-04  0.192508424791E-04
  0.205231659733E-04  0.218795788959E-04  0.233256387162E-04  0.248672701826E-04  0.265107895927E-04
  0.282629306678E-04  0.301308721363E-04  0.321222671397E-04  0.342452745818E-04  0.365085925480E-04
  0.389214939335E-04  0.414938644242E-04  0.442362429874E-04  0.471598650363E-04  0.502767084465E-04
  0.535995426118E-04  0.571419807396E-04  0.609185356008E-04  0.649446789618E-04  0.692369049405E-04
  0.738127975468E-04  0.786911026832E-04  0.838918048991E-04  0.894362092128E-04  0.953470283356E-04
  0.101648475655E-03  0.108366364352E-03  0.115528213069E-03  0.123163358540E-03  0.131303075664E-03
  0.139980705497E-03  0.149231791689E-03  0.159094225923E-03  0.169608402947E-03  0.180817385834E-03
  0.192767082134E-03  0.205506431650E-03  0.219087606588E-03  0.233566224897E-03  0.249001577680E-03
  0.265456871577E-03  0.282999487125E-03  0.301701254131E-03  0.321638745179E-03  0.342893588462E-03
  0.365552801196E-03  0.389709144983E-03  0.415461504542E-03  0.442915291345E-03  0.472182873790E-03
  0.503384035639E-03  0.536646464569E-03  0.572106272807E-03  0.609908551922E-03  0.650207964030E-03
  0.693169371745E-03  0.738968509428E-03  0.787792698391E-03  0.839841608916E-03  0.895328072125E-03
  0.954478944922E-03  0.101753603142E-02  0.108475706455E-02  0.115641675159E-02  0.123280788796E-02
  0.131424254338E-02  0.140105332525E-02  0.149359472402E-02  0.159224454595E-02  0.169740543856E-02
  0.180950651495E-02  0.192900508298E-02  0.205638848602E-02  0.219217606231E-02  0.233692123027E-02
  0.249121370767E-02  0.265568187289E-02  0.283099527715E-02  0.301786731683E-02  0.321705807591E-02
  0.342937734855E-02  0.365568785298E-02  0.389690864801E-02  0.415401876427E-02  0.442806106288E-02
  0.472014633487E-02  0.503145765533E-02  0.536325500686E-02  0.571688018774E-02  0.609376202072E-02
  0.649542187905E-02  0.692347954721E-02  0.737965943409E-02  0.786579715748E-02  0.838384651881E-02
  0.893588688811E-02  0.952413101929E-02  0.101509333164E-01  0.108187985721E-01  0.115303911989E-01
  0.122885449754E-01  0.130962733277E-01  0.139567801676E-01  0.148734713069E-01  0.158499664686E-01
  0.168901119123E-01  0.179979936897E-01  0.191779515474E-01  0.204345934856E-01  0.217728109846E-01
  0.231977949014E-01  0.247150520381E-01  0.263304223761E-01  0.280500969620E-01  0.298806364272E-01
  0.318289901084E-01  0.339025157285E-01  0.361089995842E-01  0.384566771687E-01  0.409542541438E-01
  0.436109275531E-01  0.464364071453E-01  0.494409366501E-01  0.526353148185E-01  0.560309160039E-01
  0.596397100223E-01  0.634742809821E-01  0.675478447270E-01  0.718742644740E-01  0.764680641674E-01
  0.813444389948E-01  0.865192624325E-01  0.920090890937E-01  0.978311525578E-01  0.104003357242E+00
  0.110544263258E+00  0.117473063061E+00  0.124809548547E+00  0.132574067103E+00  0.140787464921E+00
  0.149471015733E+00  0.158646332889E+00  0.168335262505E+00  0.178559755196E+00  0.189341713665E+00
  0.200702813179E+00  0.212664291766E+00  0.225246706686E+00  0.238469653567E+00  0.252351444379E+00
  0.266908740266E+00  0.282156135175E+00  0.298105686167E+00  0.314766386381E+00  0.332143576783E+00
  0.350238293192E+00  0.369046545594E+00  0.388558527527E+00  0.408757754365E+00  0.429620130760E+00
  0.451112949282E+00  0.473193824628E+00  0.495809570624E+00  0.518895030752E+00  0.542371877197E+00
  0.566147398447E+00  0.590113301430E+00  0.614144561097E+00  0.638098358197E+00  0.661813154899E+00
  0.685107967692E+00  0.707781907586E+00  0.729614068789E+00  0.750363858413E+00  0.769771870737E+00
  0.787561419584E+00  0.803440850225E+00  0.817106756820E+00  0.828248231052E+00  0.836552260249E+00
  0.841710376671E+00  0.843426630827E+00  0.841426917685E+00  0.835469622007E+00  0.825357464370E+00
  0.810950319625E+00  0.792178642051E+00  0.769056965226E+00  0.741696750633E+00  0.710317641572E+00
  0.675255946844E+00  0.636968946952E+00  0.596033406813E+00  0.553136525608E+00  0.509057499301E+00
  0.464637969403E+00  0.420739948458E+00  0.378190422936E+00  0.337712815182E+00  0.299846908632E+00
  0.264861117431E+00  0.232752001453E+00  0.203455137229E+00  0.176885203288E+00  0.152934519015E+00
  0.131477164930E+00  0.112372931991E+00  0.954710556639E-01  0.806136985630E-01  0.676391524219E-01
  0.563847353276E-01  0.466893663129E-01  0.383958054819E-01  0.313525550900E-01  0.254154239235E-01
  0.204487639190E-01  0.163263932915E-01  0.129322244418E-01  0.101606177860E-01  0.791648498433E-02
  0.611516738039E-02  0.468211812770E-02  0.355241902155E-02  0.267016551934E-02  0.198775427256E-02
  0.146510745616E-02  0.106886611836E-02  0.771581471448E-03  0.550928618003E-03  0.388962170497E-03
  0.271428022906E-03  0.187140557079E-03  0.127430105744E-03  0.856617333866E-04  0.568234205719E-04
  0.371795447371E-04  0.239840758783E-04
 ae wavefunction
 -0.732937519963E-04 -0.773541115642E-04 -0.816308744649E-04 -0.861360433969E-04 -0.908822664208E-04
 -0.958828729768E-04 -0.101151911870E-03 -0.106704191332E-03 -0.112555321268E-03 -0.118721757825E-03
 -0.125220850403E-03 -0.132070891250E-03 -0.139291167780E-03 -0.146902017784E-03 -0.154924887675E-03
 -0.163382393950E-03 -0.172298388053E-03 -0.181698024817E-03 -0.191607834694E-03 -0.202055799988E-03
 -0.213071435304E-03 -0.224685872461E-03 -0.236931950102E-03 -0.249844308284E-03 -0.263459488307E-03
 -0.277816038075E-03 -0.292954623311E-03 -0.308918144925E-03 -0.325751862902E-03 -0.343503527053E-03
 -0.362223514997E-03 -0.381964977808E-03 -0.402783993706E-03 -0.424739730256E-03 -0.447894615535E-03
 -0.472314518750E-03 -0.498068940829E-03 -0.525231215511E-03 -0.553878721523E-03 -0.584093106415E-03
 -0.615960522705E-03 -0.649571876968E-03 -0.685023092575E-03 -0.722415386796E-03 -0.761855563032E-03
 -0.803456318964E-03 -0.847336571461E-03 -0.893621799101E-03 -0.942444403236E-03 -0.993944088540E-03
 -0.104826826404E-02 -0.110557246565E-02 -0.116602080133E-02 -0.122978641998E-02 -0.129705200516E-02
 -0.136801029504E-02 -0.144286462962E-02 -0.152182952678E-02 -0.160513128825E-02 -0.169300863717E-02
 -0.178571338847E-02 -0.188351115376E-02 -0.198668208212E-02 -0.209552163852E-02 -0.221034142131E-02
 -0.233147002069E-02 -0.245925391963E-02 -0.259405843910E-02 -0.273626872940E-02 -0.288629080921E-02
 -0.304455265431E-02 -0.321150533769E-02 -0.338762422288E-02 -0.357341021224E-02 -0.376939105203E-02
 -0.397612269593E-02 -0.419419072868E-02 -0.442421185152E-02 -0.466683543085E-02 -0.492274511157E-02
 -0.519266049639E-02 -0.547733889218E-02 -0.577757712438E-02 -0.609421342011E-02 -0.642812936046E-02
 -0.678025190226E-02 -0.715155546898E-02 -0.754306411035E-02 -0.795585372970E-02 -0.839105437759E-02
 -0.884985260966E-02 -0.933349390609E-02 -0.984328514941E-02 -0.103805971565E-01 -0.109468672596E-01
 -0.115436019313E-01 -0.121723794451E-01 -0.128348525645E-01 -0.135327512513E-01 -0.142678853812E-01
 -0.150421474553E-01 -0.158575152929E-01 -0.167160546905E-01 -0.176199220269E-01 -0.185713667971E-01
 -0.195727340505E-01 -0.206264667081E-01 -0.217351077320E-01 -0.229013021154E-01 -0.241277986589E-01
 -0.254174514948E-01 -0.267732213194E-01 -0.281981762855E-01 -0.296954925076E-01 -0.312684541230E-01
 -0.329204528516E-01 -0.346549869885E-01 -0.364756597599E-01 -0.383861769668E-01 -0.403903438355E-01
 -0.424920609851E-01 -0.446953194202E-01 -0.470041944455E-01 -0.494228383954E-01 -0.519554720630E-01
 -0.546063747061E-01 -0.573798725003E-01 -0.602803253019E-01 -0.633121115773E-01 -0.664796113446E-01
 -0.697871869726E-01 -0.732391616684E-01 -0.768397954857E-01 -0.805932586747E-01 -0.845036021944E-01
 -0.885747252015E-01 -0.928103393290E-01 -0.972139295677E-01 -0.101788711561E+00 -0.106537585134E+00
 -0.111463083870E+00 -0.116567320572E+00 -0.121851928446E+00 -0.127317997858E+00 -0.132966008544E+00
 -0.138795757169E+00 -0.144806280152E+00 -0.150995771729E+00 -0.157361497243E+00 -0.163899701706E+00
 -0.170605513741E+00 -0.177472845053E+00 -0.184494285676E+00 -0.191660995289E+00 -0.198962591027E+00
 -0.206387032260E+00 -0.213920502970E+00 -0.221547292444E+00 -0.229249675130E+00 -0.237007790639E+00
 -0.244799525014E+00 -0.252600394506E+00 -0.260383433250E+00 -0.268119086382E+00 -0.275775110287E+00
 -0.283316481853E+00 -0.290705318841E+00 -0.297900813758E+00 -0.304859183932E+00 -0.311533640900E+00
 -0.317874382550E+00 -0.323828611828E+00 -0.329340586042E+00 -0.334351700967E+00 -0.338800613971E+00
 -0.342623410357E+00 -0.345753817006E+00 -0.348123467277E+00 -0.349662220916E+00 -0.350298542560E+00
 -0.349959942162E+00 -0.348573480412E+00 -0.346066341933E+00 -0.342366478570E+00 -0.337403324602E+00
 -0.331108584999E+00 -0.323417097029E+00 -0.314267764522E+00 -0.303604562916E+00 -0.291377611909E+00
 -0.277544310993E+00 -0.262070531452E+00 -0.244931856570E+00 -0.226114859734E+00 -0.205618407976E+00
 -0.183454976181E+00 -0.159651954856E+00 -0.134252931894E+00 -0.107318926380E+00 -0.789295501379E-01
 -0.491840704678E-01 -0.182023455160E-01  0.138743980112E-01  0.468829763676E-01  0.806378817511E-01
  0.114931168767E+00  0.149532625121E+00  0.184190254977E+00  0.218631100565E+00  0.252562425166E+00
  0.285673279734E+00  0.317636476703E+00  0.348110997204E+00  0.376744859528E+00  0.403178473171E+00
  0.427048489839E+00  0.447992139756E+00  0.465652015784E+00  0.479681250768E+00  0.489749027931E+00
  0.495546362212E+00  0.496792082664E+00  0.493238932718E+00  0.484679691079E+00  0.470953205186E+00
  0.451950222004E+00  0.427618895056E+00  0.397969841306E+00  0.363080616195E+00  0.323099470937E+00
  0.278248254206E+00  0.228824321692E+00  0.175201322998E+00  0.117828746766E+00  0.572301220784E-01
 -0.600020337812E-02 -0.712017608238E-01 -0.137654153285E+00 -0.204584718942E+00 -0.271177570910E+00
 -0.336583816755E+00 -0.399932646804E+00 -0.460342937004E+00 -0.516935164454E+00 -0.568843833716E+00
 -0.615231006130E+00 -0.655301259542E+00 -0.688317295692E+00 -0.713614692664E+00 -0.730614884305E+00
 -0.738836336393E+00 -0.737904113137E+00 -0.727557812863E+00 -0.707657641395E+00 -0.678188338169E+00
 -0.639260756379E+00 -0.591111046202E+00 -0.534097523275E+00 -0.468695390146E+00 -0.395489520409E+00
 -0.315165531164E+00 -0.228499372141E+00 -0.136345658063E+00 -0.396249677747E-01  0.606896675196E-01
  0.163586863296E+00  0.268031340059E+00  0.372978506967E+00  0.477388930313E+00  0.580242441272E+00
  0.680551632810E+00  0.777374493070E+00  0.869825924693E+00  0.957087919787E+00  0.103841822049E+01
  0.111315741019E+01  0.118073453360E+01  0.124067147527E+01  0.129258634529E+01  0.133619600992E+01
  0.137131770321E+01  0.139786950051E+01  0.141586939807E+01  0.142543282138E+01  0.142676850529E+01
  0.142017281343E+01  0.140602263607E+01  0.138476706226E+01  0.135691805113E+01  0.132304034309E+01
  0.128374086371E+01  0.123965787349E+01  0.119145009762E+01  0.113978607412E+01  0.108533390861E+01
  0.102875163432E+01  0.970678323525E+00  0.911726086357E+00  0.852473061294E+00  0.793457471373E+00
  0.735172792441E+00  0.678064050350E+00  0.622525233705E+00  0.568897787499E+00  0.517470131258E+00
  0.468478133050E+00  0.422106457345E+00  0.378490692255E+00  0.337720149080E+00  0.299841213362E+00
  0.264861117431E+00  0.232752001453E+00  0.203455137229E+00  0.176885203288E+00  0.152934519015E+00
  0.131477164930E+00  0.112372931991E+00  0.954710556639E-01  0.806136985630E-01  0.676391524219E-01
  0.563847353276E-01  0.466893663129E-01  0.383958054819E-01  0.313525550900E-01  0.254154239235E-01
  0.204487639190E-01  0.163263932915E-01  0.129322244418E-01  0.101606177860E-01  0.791648498433E-02
  0.611516738039E-02  0.468211812770E-02  0.355241902155E-02  0.267016551934E-02  0.198775427256E-02
  0.146510745616E-02  0.106886611836E-02  0.771581471448E-03  0.550928618003E-03  0.388962170497E-03
  0.271428022906E-03  0.187140557079E-03  0.127430105744E-03  0.856617333866E-04  0.568234205719E-04
  0.371795447371E-04  0.239840758783E-04
 pseudo wavefunction
 -0.310244704427E-08 -0.330749520791E-08 -0.352609549606E-08 -0.375914360108E-08 -0.400759441376E-08
 -0.427246593592E-08 -0.455484345153E-08 -0.485588397359E-08 -0.517682098483E-08 -0.551896949181E-08
 -0.588373141300E-08 -0.627260132301E-08 -0.668717257644E-08 -0.712914383648E-08 -0.760032603504E-08
 -0.810264979280E-08 -0.863817332976E-08 -0.920909089857E-08 -0.981774177525E-08 -0.104666198441E-07
 -0.111583838162E-07 -0.118958681231E-07 -0.126820945306E-07 -0.135202845202E-07 -0.144138724888E-07
 -0.153665198205E-07 -0.163821298892E-07 -0.174648640515E-07 -0.186191586985E-07 -0.198497434321E-07
 -0.211616604453E-07 -0.225602851810E-07 -0.240513483580E-07 -0.256409594515E-07 -0.273356317261E-07
 -0.291423089235E-07 -0.310683937130E-07 -0.331217780238E-07 -0.353108753807E-07 -0.376446553780E-07
 -0.401326804307E-07 -0.427851449562E-07 -0.456129171438E-07 -0.486275834863E-07 -0.518414962543E-07
 -0.552678241077E-07 -0.589206060528E-07 -0.628148089652E-07 -0.669663889148E-07 -0.713923565436E-07
 -0.761108467643E-07 -0.811411930661E-07 -0.865040067303E-07 -0.922212612827E-07 -0.983163825265E-07
 -0.104814344527E-06 -0.111741771936E-06 -0.119127049089E-06 -0.127000436296E-06 -0.135394193836E-06
 -0.144342714136E-06 -0.153882662687E-06 -0.164053128274E-06 -0.174895783137E-06 -0.186455053716E-06
 -0.198778302679E-06 -0.211916022977E-06 -0.225922044739E-06 -0.240853755817E-06 -0.256772336933E-06
 -0.273743012343E-06 -0.291835317085E-06 -0.311123381879E-06 -0.331686236861E-06 -0.353608135388E-06
 -0.376978899244E-06 -0.401894286657E-06 -0.428456384646E-06 -0.456774027287E-06 -0.486963241629E-06
 -0.519147723074E-06 -0.553459342179E-06 -0.590038684947E-06 -0.629035628824E-06 -0.670609956764E-06
 -0.714932011872E-06 -0.762183395311E-06 -0.812557710330E-06 -0.866261355461E-06 -0.923514370126E-06
 -0.984551336142E-06 -0.104962233878E-05 -0.111899399134E-05 -0.119295052743E-05 -0.127179496545E-05
 -0.135585034996E-05 -0.144546107515E-05 -0.154099429570E-05 -0.164284143092E-05 -0.175141976823E-05
 -0.186717417262E-05 -0.199057890905E-05 -0.212213958526E-05 -0.226239522293E-05 -0.241192046574E-05
 -0.257132793319E-05 -0.274127073008E-05 -0.292244512168E-05 -0.311559338562E-05 -0.332150685227E-05
 -0.354102914586E-05 -0.377505963977E-05 -0.402455714001E-05 -0.429054381207E-05 -0.457410936703E-05
 -0.487641552422E-05 -0.519870076863E-05 -0.554228542242E-05 -0.590857705140E-05 -0.629907622849E-05
 -0.671538267774E-05 -0.715920182399E-05 -0.763235177499E-05 -0.813677076438E-05 -0.867452508606E-05
 -0.924781755216E-05 -0.985899650939E-05 -0.105105654502E-04 -0.112051932584E-04 -0.119457251305E-04
 -0.127351942178E-04 -0.135768340361E-04 -0.144740916947E-04 -0.154306419964E-04 -0.164504024688E-04
 -0.175375493854E-04 -0.186965348432E-04 -0.199321049657E-04 -0.212493193056E-04 -0.226535715250E-04
 -0.241506114385E-04 -0.257465685073E-04 -0.274479768801E-04 -0.292618020818E-04 -0.311954694590E-04
 -0.332568944959E-04 -0.354545151235E-04 -0.377973261531E-04 -0.402949159727E-04 -0.429575056526E-04
 -0.457959906196E-04 -0.488219850662E-04 -0.520478692726E-04 -0.554868400308E-04 -0.591529643747E-04
 -0.630612368269E-04 -0.672276403946E-04 -0.716692115533E-04 -0.764041094794E-04 -0.814516898043E-04
 -0.868325831817E-04 -0.925687789786E-04 -0.986837144186E-04 -0.105202369527E-03 -0.112151368247E-03
 -0.119559086131E-03 -0.127455765003E-03 -0.135873635068E-03 -0.144847044903E-03 -0.154412599863E-03
 -0.164609309405E-03 -0.175478743897E-03 -0.187065201519E-03 -0.199415885861E-03 -0.212581094897E-03
 -0.226614422036E-03 -0.241572969977E-03 -0.257517578176E-03 -0.274513064720E-03 -0.292628483508E-03
 -0.311937397626E-03 -0.332518169911E-03 -0.354454271680E-03 -0.377834610727E-03 -0.402753879670E-03
 -0.429312925835E-03 -0.457619143880E-03 -0.487786892455E-03 -0.519937936194E-03 -0.554201914444E-03
 -0.590716838135E-03 -0.629629616287E-03 -0.671096613661E-03 -0.715284241126E-03 -0.762369580331E-03
 -0.812541044324E-03 -0.865999075754E-03 -0.922956884324E-03 -0.983641225149E-03 -0.104829321966E-02
 -0.111716922066E-02 -0.119054172308E-02 -0.126870032194E-02 -0.135195271873E-02 -0.144062577766E-02
 -0.153506663253E-02 -0.163564384522E-02 -0.174274861608E-02 -0.185679604656E-02 -0.197822645358E-02
 -0.210750673490E-02 -0.224513178402E-02 -0.239162595236E-02 -0.254754455573E-02 -0.271347542084E-02
 -0.289004046675E-02 -0.307789731429E-02 -0.327774091529E-02 -0.349030519127E-02 -0.371636466911E-02
 -0.395673609883E-02 -0.421228003536E-02 -0.448390236314E-02 -0.477255573832E-02 -0.507924091891E-02
 -0.540500794829E-02 -0.575095715146E-02 -0.611823989693E-02 -0.650805906957E-02 -0.692166919123E-02
 -0.736037611591E-02 -0.782553621551E-02 -0.831855495953E-02 -0.884088477775E-02 -0.939402207908E-02
 -0.997950328172E-02 -0.105988996892E-01 -0.112538110240E-01 -0.119458574053E-01 -0.126766695279E-01
 -0.134478767671E-01 -0.142610928999E-01 -0.151178990904E-01 -0.160198237461E-01 -0.169683187986E-01
 -0.179647319119E-01 -0.190102740593E-01 -0.201059818442E-01 -0.212526738686E-01 -0.224509003767E-01
 -0.237008853119E-01 -0.250024598393E-01 -0.263549862836E-01 -0.277572713308E-01 -0.292074672335E-01
 -0.307029596406E-01 -0.322402405622E-01 -0.338147648546E-01 -0.354207884969E-01 -0.370511868175E-01
 -0.386972507208E-01 -0.403484588793E-01 -0.419922237845E-01 -0.436136095104E-01 -0.451950190478E-01
 -0.467158491196E-01 -0.481521105105E-01 -0.494760121576E-01 -0.506555075658E-01 -0.516538025686E-01
 -0.524288240750E-01 -0.529326502655E-01 -0.531109037616E-01 -0.529021106380E-01 -0.522370298308E-01
 -0.510379595651E-01 -0.492180299424E-01 -0.466804938569E-01 -0.433180320040E-01 -0.390120919675E-01
 -0.336322862698E-01 -0.270358798842E-01 -0.190674040466E-01 -0.955844025912E-02  0.167237392790E-02
  0.148190575447E-01  0.300876489066E-01  0.476951415342E-01  0.678679083745E-01  0.908395224387E-01
  0.116847876933E+00  0.146131505916E+00  0.178925008837E+00  0.215453490685E+00  0.255925945889E+00
  0.300527540952E+00  0.349410790729E+00  0.402685679164E+00  0.460408850276E+00  0.522572091995E+00
  0.589090456726E+00  0.659790509558E+00  0.734399367919E+00  0.812535392475E+00  0.893701602281E+00
  0.977283106459E+00  0.106255005304E+01  0.114866776785E+01  0.123471585849E+01  0.131971804564E+01
  0.140268627974E+01  0.148290710203E+01  0.156017695477E+01  0.163437871215E+01  0.000000000000E+00
  0.000000000000E+00  0.000000000000E+00  0.000000000000E+00  0.000000000000E+00  0.000000000000E+00
  0.000000000000E+00  0.000000000000E+00  0.000000000000E+00  0.000000000000E+00  0.000000000000E+00
  0.000000000000E+00  0.000000000000E+00  0.000000000000E+00  0.000000000000E+00  0.000000000000E+00
  0.000000000000E+00  0.000000000000E+00  0.000000000000E+00  0.000000000000E+00  0.000000000000E+00
  0.000000000000E+00  0.000000000000E+00  0.000000000000E+00  0.000000000000E+00  0.000000000000E+00
  0.000000000000E+00  0.000000000000E+00  0.000000000000E+00  0.000000000000E+00  0.000000000000E+00
  0.000000000000E+00  0.000000000000E+00
 ae wavefunction
  0.440749648125E-04  0.465166513214E-04  0.490884712969E-04  0.517976425288E-04  0.546517708936E-04
  0.576588720129E-04  0.608273940965E-04  0.641662420316E-04  0.676848027907E-04  0.713929722308E-04
  0.753011833632E-04  0.794204361773E-04  0.837623291038E-04  0.883390922126E-04  0.931636222400E-04
  0.982495195495E-04  0.103611127135E-03  0.109263571777E-03  0.115222807485E-03  0.121505661329E-03
  0.128129881827E-03  0.135114189999E-03  0.142478333261E-03  0.150243142301E-03  0.158430591113E-03
  0.167063860354E-03  0.176167404226E-03  0.185767021048E-03  0.195889927764E-03  0.206564838560E-03
  0.217822047849E-03  0.229693517846E-03  0.242212970994E-03  0.255415987501E-03  0.269340108269E-03
  0.284024943509E-03  0.299512287349E-03  0.315846238761E-03  0.333073329151E-03  0.351242656962E-03
  0.370406029674E-03  0.390618113598E-03  0.411936591864E-03  0.434422331063E-03  0.458139556972E-03
  0.483156039861E-03  0.509543289869E-03  0.537376762978E-03  0.566736078139E-03  0.597705246103E-03
  0.630372910581E-03  0.664832602336E-03  0.701183006866E-03  0.739528246354E-03  0.779978176596E-03
  0.822648699630E-03  0.867662092831E-03  0.915147355272E-03  0.965240572152E-03  0.101808529815E-02
  0.107383296057E-02  0.113264328321E-02  0.119468473181E-02  0.126013498214E-02  0.132918141159E-02
  0.140202161540E-02  0.147886394837E-02  0.155992809331E-02  0.164544565707E-02  0.173566079541E-02
  0.183083086766E-02  0.193122712226E-02  0.203713541435E-02  0.214885695639E-02  0.226670910292E-02
  0.239102617041E-02  0.252216029338E-02  0.266048231756E-02  0.280638273111E-02  0.296027263473E-02
  0.312258475143E-02  0.329377447658E-02  0.347432096890E-02  0.366472828277E-02  0.386552654210E-02
  0.407727315595E-02  0.430055407575E-02  0.453598509381E-02  0.478421318252E-02  0.504591787343E-02
  0.532181267484E-02  0.561264652655E-02  0.591920528950E-02  0.624231326813E-02  0.658283476215E-02
  0.694167564446E-02  0.731978496083E-02  0.771815654649E-02  0.813783065403E-02  0.857989558597E-02
  0.904548932462E-02  0.953580115072E-02  0.100520732413E-01  0.105956022357E-01  0.111677407582E-01
  0.117698988830E-01  0.124035455264E-01  0.130702097506E-01  0.137714819579E-01  0.145090149581E-01
  0.152845248829E-01  0.160997919248E-01  0.169566608718E-01  0.178570414086E-01  0.188029081505E-01
  0.197963003759E-01  0.208393214169E-01  0.219341376671E-01  0.230829771606E-01  0.242881276733E-01
  0.255519342933E-01  0.268767964043E-01  0.282651640201E-01  0.297195334060E-01  0.312424419175E-01
  0.328364619824E-01  0.345041941482E-01  0.362482591132E-01  0.380712886520E-01  0.399759153475E-01
  0.419647610307E-01  0.440404238313E-01  0.462054637347E-01  0.484623865402E-01  0.508136261107E-01
  0.532615248025E-01  0.558083119636E-01  0.584560803865E-01  0.612067606038E-01  0.640620929140E-01
  0.670235970327E-01  0.700925392637E-01  0.732698970951E-01  0.765563211335E-01  0.799520942995E-01
  0.834570882221E-01  0.870707167882E-01  0.907918868207E-01  0.946189458862E-01  0.985496272571E-01
  0.102580992090E+00  0.106709368918E+00  0.110930290594E+00  0.115238428872E+00  0.119627526879E+00
  0.124090329762E+00  0.128618513886E+00  0.133202615027E+00  0.137831956054E+00  0.142494574707E+00
  0.147177152139E+00  0.151864942965E+00  0.156541707673E+00  0.161189648307E+00  0.165789348451E+00
  0.170319718648E+00  0.174757948518E+00  0.179079467009E+00  0.183257912435E+00  0.187265114143E+00
  0.191071087902E+00  0.194644047314E+00  0.197950433670E+00  0.200954966786E+00  0.203620719372E+00
  0.205909217457E+00  0.207780569347E+00  0.209193625482E+00  0.210106171493E+00  0.210475156589E+00
  0.210256959315E+00  0.209407692526E+00  0.207883549263E+00  0.205641190941E+00  0.202638178953E+00
  0.198833450384E+00  0.194187838016E+00  0.188664634224E+00  0.182230197644E+00  0.174854600685E+00
  0.166512315063E+00  0.157182931491E+00  0.146851908523E+00  0.135511344368E+00  0.123160764124E+00
  0.109807913538E+00  0.954695489368E-01  0.801722115298E-01  0.639529727904E-01  0.468601362306E-01
  0.289538795003E-01  0.103068195223E-01 -0.899551768590E-02 -0.288543416417E-01 -0.491573760299E-01
 -0.697787907769E-01 -0.905793062603E-01 -0.111406486980E+00 -0.132095240315E+00 -0.152468534533E+00
 -0.172338349726E+00 -0.191506876137E+00 -0.209767975949E+00 -0.226908925575E+00 -0.242712453351E+00
 -0.256959079687E+00 -0.269429752808E+00 -0.279908757643E+00 -0.288186865083E+00 -0.294064685417E+00
 -0.297356188506E+00 -0.297892348467E+00 -0.295524862483E+00 -0.290129884792E+00 -0.281611710195E+00
 -0.269906336984E+00 -0.254984835397E+00 -0.236856444357E+00 -0.215571315805E+00 -0.191222823159E+00
 -0.163949349074E+00 -0.133935468240E+00 -0.101412444413E+00 -0.666579676094E-01 -0.299950676100E-01
  0.820984659755E-02  0.475498555080E-01  0.875813201358E-01  0.127828582417E+00  0.167789519891E+00
  0.206941837228E+00  0.244749908391E+00  0.280671958242E+00  0.314167466193E+00  0.344704916537E+00
  0.371770254447E+00  0.394876238908E+00  0.413572209012E+00  0.427453350566E+00  0.436168909897E+00
  0.439429337413E+00  0.437012474008E+00  0.428768760771E+00  0.414625325244E+00  0.394588766440E+00
  0.368746513889E+00  0.337266725278E+00  0.300396766702E+00  0.258460369982E+00  0.211853585655E+00
  0.161039658970E+00  0.106542957239E+00  0.489420755993E-01 -0.111377534610E-01 -0.730328216721E-01
 -0.136049550833E+00 -0.199473412299E+00 -0.262578024431E+00 -0.324634286924E+00 -0.384919406326E+00
 -0.442725662853E+00 -0.497368766032E+00 -0.548195647713E+00 -0.594591554298E+00 -0.635986338688E+00
 -0.671859923518E+00 -0.701746997348E+00 -0.725241075392E+00 -0.741998052316E+00 -0.751739291539E+00
 -0.754254165207E+00 -0.749401866984E+00 -0.737112306579E+00 -0.717385951523E+00 -0.690292561590E+00
 -0.655968839040E+00 -0.614615064509E+00 -0.566490823847E+00 -0.511909952182E+00 -0.451234833572E+00
 -0.384870204627E+00 -0.313256613329E+00 -0.236863677767E+00 -0.156183291537E+00 -0.717229040492E-01
  0.160009954071E-01  0.106469080545E+00  0.199164977589E+00  0.293580558120E+00  0.389220668642E+00
  0.485607251379E+00  0.582282823822E+00  0.678813308315E+00  0.774790221421E+00  0.869832232232E+00
  0.963586169507E+00  0.105572753422E+01  0.114596066422E+01  0.123401870995E+01  0.131966361379E+01
  0.140268627974E+01  0.148290710203E+01  0.156017695477E+01  0.163437871215E+01  0.000000000000E+00
  0.000000000000E+00  0.000000000000E+00  0.000000000000E+00  0.000000000000E+00  0.000000000000E+00
  0.000000000000E+00  0.000000000000E+00  0.000000000000E+00  0.000000000000E+00  0.000000000000E+00
  0.000000000000E+00  0.000000000000E+00  0.000000000000E+00  0.000000000000E+00  0.000000000000E+00
  0.000000000000E+00  0.000000000000E+00  0.000000000000E+00  0.000000000000E+00  0.000000000000E+00
  0.000000000000E+00  0.000000000000E+00  0.000000000000E+00  0.000000000000E+00  0.000000000000E+00
  0.000000000000E+00  0.000000000000E+00  0.000000000000E+00  0.000000000000E+00  0.000000000000E+00
  0.000000000000E+00  0.000000000000E+00
 pseudo wavefunction
  0.138916426583E-11  0.152913515625E-11  0.168320938246E-11  0.185280798332E-11  0.203949518030E-11
  0.224499280429E-11  0.247119617628E-11  0.272019158803E-11  0.299427554407E-11  0.329597594258E-11
  0.362807539040E-11  0.399363686719E-11  0.439603197558E-11  0.483897203771E-11  0.532654232504E-11
  0.586323973712E-11  0.645401427689E-11  0.710431470492E-11  0.782013879374E-11  0.860808864579E-11
  0.947543158514E-11  0.104301671845E-10  0.114811010462E-10  0.126379260164E-10  0.139113115834E-10
  0.153130022833E-10  0.168559260201E-10  0.185543133015E-10  0.204238284875E-10  0.224817142641E-10
  0.247469506742E-10  0.272404301714E-10  0.299851503133E-10  0.330064258695E-10  0.363321223014E-10
  0.399929127679E-10  0.440225610258E-10  0.484582328359E-10  0.533408387452E-10  0.587154114083E-10
  0.646315209265E-10  0.711437320368E-10  0.783121073662E-10  0.862027613940E-10  0.948884702301E-10
  0.104449342835E-09  0.114973559868E-09  0.126558186988E-09  0.139310070092E-09  0.153346820767E-09
  0.168797901025E-09  0.185805817343E-09  0.204527435009E-09  0.225135424902E-09  0.247819856042E-09
  0.272789948617E-09  0.300276003625E-09  0.330531526962E-09  0.363835567517E-09  0.400495290859E-09
  0.440848812243E-09  0.485268315065E-09  0.534163483528E-09  0.587985281188E-09  0.647230110207E-09
  0.712444389698E-09  0.784229595375E-09  0.863247806990E-09  0.950227814723E-09  0.104597184084E-08
  0.115136293864E-08  0.126737313685E-08  0.139507240471E-08  0.153563852031E-08  0.169036793330E-08
  0.186068772202E-08  0.204816875552E-08  0.225454018171E-08  0.248170537524E-08  0.273175949244E-08
  0.300700879486E-08  0.330999191994E-08  0.364350329488E-08  0.401061890952E-08  0.441472468619E-08
  0.485954770794E-08  0.534919059331E-08  0.588816933459E-08  0.648145494859E-08  0.713451932401E-08
  0.785338568831E-08  0.864468415945E-08  0.951571289485E-08  0.104745054016E-07  0.115299046284E-07
  0.126916445233E-07  0.139704398083E-07  0.153780847996E-07  0.169275621844E-07  0.186331627582E-07
  0.205106172257E-07  0.225772412813E-07  0.248520953079E-07  0.273561601658E-07  0.301125306927E-07
  0.331466287006E-07  0.364864374325E-07  0.401627596414E-07  0.442095016723E-07  0.486639861657E-07
  0.535672962672E-07  0.589646545170E-07  0.649058399133E-07  0.714456469955E-07  0.786443911803E-07
  0.865684650108E-07  0.952909504477E-07  0.104892292848E-06  0.115461042848E-06  0.127094672984E-06
  0.139900476596E-06  0.153996557278E-06  0.169512918026E-06  0.186592660102E-06  0.205393302678E-06
  0.226088235427E-06  0.248868317452E-06  0.273943637285E-06  0.301545450192E-06  0.331928310639E-06
  0.365372419575E-06  0.402186208166E-06  0.442709181799E-06  0.487315050572E-06  0.536415175112E-06
  0.590462359489E-06  0.649955026171E-06  0.715441811504E-06  0.787526624047E-06  0.866874212388E-06
  0.954216293722E-06  0.105035829967E-05  0.115618680145E-05  0.127267768288E-05  0.140090513634E-05
  0.154205156474E-05  0.169741848047E-05  0.186843850190E-05  0.205668855770E-05  0.226390442068E-05
  0.249199670480E-05  0.274306847272E-05  0.301943461584E-05  0.332364318510E-05  0.365849886890E-05
  0.402708883397E-05  0.443281116694E-05  0.487940617800E-05  0.537099085448E-05  0.591209678104E-05
  0.650771187478E-05  0.716332631881E-05  0.788498311597E-05  0.867933372695E-05  0.955369930344E-05
  0.105161380781E-04  0.115755195298E-04  0.127416060033E-04  0.140251425325E-04  0.154379556896E-04
  0.169930623654E-04  0.187047894764E-04  0.205889056939E-04  0.226627663998E-04  0.249454731933E-04
  0.274580494055E-04  0.302236332235E-04  0.332676901859E-04  0.366182469854E-04  0.403061487084E-04
  0.443653418512E-04  0.488331856863E-04  0.537507948057E-04  0.591634159492E-04  0.651208425317E-04
  0.716778706229E-04  0.788948004989E-04  0.868379882960E-04  0.955804527377E-04  0.105202542397E-03
  0.115792669488E-03  0.127448116772E-03  0.140275924798E-03  0.154393867411E-03  0.169931524218E-03
  0.187031459556E-03  0.205850518430E-03  0.226561250872E-03  0.249353477314E-03  0.274436008722E-03
  0.302038536608E-03  0.332413709403E-03  0.365839413299E-03  0.402621277326E-03  0.443095424293E-03
  0.487631491255E-03  0.536635945325E-03  0.590555723051E-03  0.649882224140E-03  0.715155693123E-03
  0.786970025537E-03  0.865978038504E-03  0.952897249077E-03  0.104851620751E-02  0.115370143672E-02
  0.126940503345E-02  0.139667299156E-02  0.153665431252E-02  0.169061097378E-02  0.185992883106E-02
  0.204612953687E-02  0.225088356333E-02  0.247602442439E-02  0.272356419899E-02  0.299571046393E-02
  0.329488475220E-02  0.362374266010E-02  0.398519573350E-02  0.438243527101E-02  0.481895818863E-02
  0.529859509714E-02  0.582554074933E-02  0.640438701907E-02  0.704015857819E-02  0.773835143912E-02
  0.850497453133E-02  0.934659447711E-02  0.102703837262E-01  0.112841721992E-01  0.123965025740E-01
  0.136166893294E-01  0.149548816313E-01  0.164221301104E-01  0.180304575314E-01  0.197929332969E-01
  0.217237516525E-01  0.238383133707E-01  0.261533105787E-01  0.286868142642E-01  0.314583638323E-01
  0.344890578967E-01  0.378016452663E-01  0.414206148246E-01  0.453722826930E-01  0.496848747155E-01
  0.543886018932E-01  0.595157259288E-01  0.651006115110E-01  0.711797613670E-01  0.777918294409E-01
  0.849776068069E-01  0.927799741051E-01  0.101243813393E+00  0.110415871347E+00  0.120344564722E+00
  0.131079717934E+00  0.142672221549E+00  0.155173599416E+00  0.168635471204E+00  0.183108896233E+00
  0.198643583879E+00  0.215286955474E+00  0.233083042733E+00  0.252071208457E+00  0.272284676688E+00
  0.293748862014E+00  0.316479491359E+00  0.340480516879E+00  0.365741825639E+00  0.392236760990E+00
  0.419919482378E+00  0.448722204941E+00  0.478552378037E+00  0.509289883008E+00  0.540784355036E+00
  0.572852761720E+00  0.605277401595E+00  0.637804518158E+00  0.670143757656E+00  0.701968729629E+00
  0.732918954750E+00  0.762603500618E+00  0.790606607195E+00  0.816495582634E+00  0.839831198878E+00
  0.860180725118E+00  0.877133595470E+00  0.890319504579E+00  0.899428451978E+00  0.904231906602E+00
  0.904603836279E+00  0.900539851886E+00  0.892172174268E+00  0.879777584878E+00  0.863775033425E+00
  0.844709242517E+00  0.823216598238E+00  0.799970009070E+00  0.775600444058E+00  0.750594729755E+00
  0.725171977433E+00  0.699331533600E+00  0.673156794397E+00  0.646747908597E+00  0.620199105240E+00
  0.593599379789E+00  0.567033149221E+00  0.540580850947E+00  0.514319465565E+00  0.488322936052E+00
  0.462662475073E+00  0.437406718173E+00  0.412621712314E+00  0.388370699870E+00  0.364713701950E+00
  0.341706909494E+00  0.319401931111E+00  0.297844974171E+00  0.277076056681E+00  0.257128351519E+00
  0.238027750634E+00  0.219792711655E+00  0.202434385638E+00  0.185957055464E+00  0.170358790670E+00
  0.155632273675E+00  0.141765710205E+00  0.128743740469E+00  0.116548274282E+00  0.105159188243E+00
  0.945548448454E-01  0.847124194594E-01  0.756080480357E-01  0.672168316150E-01  0.595127492764E-01
  0.524685366730E-01  0.460555828689E-01
 ae wavefunction
  0.251524127136E-07  0.274082755207E-07  0.298548834975E-07  0.325093186167E-07  0.353901236610E-07
  0.385174334344E-07  0.419131173651E-07  0.456009345249E-07  0.496067021872E-07  0.539584791465E-07
  0.586867651314E-07  0.638247177602E-07  0.694083886192E-07  0.754769801866E-07  0.820731254768E-07
  0.892431924507E-07  0.970376154217E-07  0.105511255887E-06  0.114723795434E-06  0.124740163613E-06
  0.135631003929E-06  0.147473181376E-06  0.160350335290E-06  0.174353481573E-06  0.189581668781E-06
  0.206142692925E-06  0.224153876288E-06  0.243742916062E-06  0.265048809124E-06  0.288222859837E-06
  0.313429778393E-06  0.340848877939E-06  0.370675379408E-06  0.403121833871E-06  0.438419673040E-06
  0.476820899624E-06  0.518599930194E-06  0.564055604484E-06  0.613513376252E-06  0.667327702238E-06
  0.725884647277E-06  0.789604725267E-06  0.858945997502E-06  0.934407451856E-06  0.101653268845E-05
  0.110591393977E-05  0.120319645582E-05  0.130908328762E-05  0.142434050549E-05  0.154980289177E-05
  0.168638015150E-05  0.183506368830E-05  0.199693399708E-05  0.217316873017E-05  0.236505149826E-05
  0.257398147335E-05  0.280148386719E-05  0.304922136497E-05  0.331900660173E-05  0.361281577669E-05
  0.393280350932E-05  0.428131905063E-05  0.466092397314E-05  0.507441147445E-05  0.552482744140E-05
  0.601549343504E-05  0.655003177128E-05  0.713239288759E-05  0.776688520328E-05  0.845820769973E-05
  0.921148546683E-05  0.100323084841E-04  0.109267739289E-04  0.119015323297E-04  0.129638379118E-04
  0.141216035109E-04  0.153834604669E-04  0.167588239427E-04  0.182579641539E-04  0.198920840373E-04
  0.216734039318E-04  0.236152538939E-04  0.257321743267E-04  0.280400256549E-04  0.305561078459E-04
  0.332992906410E-04  0.362901554363E-04  0.395511498309E-04  0.431067559453E-04  0.469836737051E-04
  0.512110203833E-04  0.558205478003E-04  0.608468786967E-04  0.663277639147E-04  0.723043621554E-04
  0.788215442218E-04  0.859282238069E-04  0.936777170466E-04  0.102128133232E-03  0.111342799254E-03
  0.121390720559E-03  0.132347081586E-03  0.144293788892E-03  0.157320060398E-03  0.171523064435E-03
  0.187008612536E-03  0.203891910182E-03  0.222298370022E-03  0.242364492361E-03  0.264238818047E-03
  0.288082959212E-03  0.314072713657E-03  0.342399269031E-03  0.373270503322E-03  0.406912388533E-03
  0.443570504814E-03  0.483511672694E-03  0.527025711439E-03  0.574427331955E-03  0.626058173018E-03
  0.682288989986E-03  0.743522005484E-03  0.810193431890E-03  0.882776175728E-03  0.961782734320E-03
  0.104776829526E-02  0.114133404939E-02  0.124313072802E-02  0.135386237512E-02  0.147429036502E-02
  0.160523767592E-02  0.174759342904E-02  0.190231770279E-02  0.207044663032E-02  0.225309778788E-02
  0.245147588031E-02  0.266687872813E-02  0.290070355887E-02  0.315445360314E-02  0.342974499310E-02
  0.372831395767E-02  0.405202430565E-02  0.440287518287E-02  0.478300908550E-02  0.519472010513E-02
  0.564046237584E-02  0.612285868546E-02  0.664470920581E-02  0.720900028745E-02  0.781891325451E-02
  0.847783312412E-02  0.918935716276E-02  0.995730317864E-02  0.107857174343E-01  0.116788820479E-01
  0.126413217353E-01  0.136778097249E-01  0.147933726593E-01  0.159932942743E-01  0.172831176260E-01
  0.186686456077E-01  0.201559394743E-01  0.217513150613E-01  0.234613363521E-01  0.252928060140E-01
  0.272527524859E-01  0.293484131656E-01  0.315872132128E-01  0.339767394594E-01  0.365247089052E-01
  0.392389312727E-01  0.421272651023E-01  0.451975668788E-01  0.484576326904E-01  0.519151319331E-01
  0.555775325738E-01  0.594520175003E-01  0.635453914898E-01  0.678639783557E-01  0.724135078555E-01
  0.771989920016E-01  0.822245904817E-01  0.874934650019E-01  0.930076224898E-01  0.987677472531E-01
  0.104773022368E+00  0.111020940784E+00  0.117507106865E+00  0.124225029362E+00  0.131165907089E+00
  0.138318408934E+00  0.145668450148E+00  0.153198967277E+00  0.160889694468E+00  0.168716944323E+00
  0.176653396886E+00  0.184667900801E+00  0.192725291086E+00  0.200786228398E+00  0.208807065044E+00
  0.216739743334E+00  0.224531732147E+00  0.232126007725E+00  0.239461084715E+00  0.246471103197E+00
  0.253085976927E+00  0.259231607280E+00  0.264830166673E+00  0.269800454998E+00  0.274058333329E+00
  0.277517241092E+00  0.280088805578E+00  0.281683555116E+00  0.282211747733E+00  0.281584323957E+00
  0.279713984459E+00  0.276516382184E+00  0.271911409898E+00  0.265824562695E+00  0.258188359289E+00
  0.248943809597E+00  0.238041915029E+00  0.225445183708E+00  0.211129138754E+00  0.195083795331E+00
  0.177315080904E+00  0.157846171906E+00  0.136718718244E+00  0.113993924854E+00  0.897534572695E-01
  0.641001365148E-01  0.371583878693E-01  0.907440868785E-02 -0.199839773433E-01 -0.498278083913E-01
 -0.802478389240E-01 -0.111015777928E+00 -0.141885919612E+00 -0.172597160070E+00 -0.202875365162E+00
 -0.232436010764E+00 -0.260986971668E+00 -0.288231334760E+00 -0.313870216713E+00 -0.337605791913E+00
 -0.359144933904E+00 -0.378203695537E+00 -0.394512238179E+00 -0.407819468065E+00 -0.417896998908E+00
 -0.424542541892E+00 -0.427582918882E+00 -0.426876754632E+00 -0.422316772786E+00 -0.413831574630E+00
 -0.401386807245E+00 -0.384985688580E+00 -0.364668912035E+00 -0.340513985324E+00 -0.312634069736E+00
 -0.281176385310E+00 -0.246320241393E+00 -0.208274744856E+00 -0.167276231252E+00 -0.123585458966E+00
 -0.774846032216E-01 -0.292740862831E-01  0.207307179560E-01  0.722028632337E-01  0.124807247227E+00
  0.178204011847E+00  0.232051866665E+00  0.286011266185E+00  0.339747367515E+00  0.392932705443E+00
  0.445249558302E+00  0.496392040320E+00  0.546068023569E+00  0.594001022194E+00  0.639932140505E+00
  0.683622097476E+00  0.724853249312E+00  0.763431480446E+00  0.799187836434E+00  0.831979803374E+00
  0.861692183191E+00  0.888237540577E+00  0.911556221927E+00  0.931615960637E+00  0.948411093056E+00
  0.961961420498E+00  0.972310760096E+00  0.979525224167E+00  0.983691283184E+00  0.984913645489E+00
  0.983313011244E+00  0.979023736410E+00  0.972191453771E+00  0.962970694922E+00  0.951522550777E+00
  0.938012417666E+00  0.922607848242E+00  0.905476546324E+00  0.886784530777E+00  0.866694465900E+00
  0.845364226047E+00  0.822945681515E+00  0.799583765914E+00  0.775415843029E+00  0.750571389058E+00
  0.725171977433E+00  0.699331533600E+00  0.673156794397E+00  0.646747908597E+00  0.620199105240E+00
  0.593599379789E+00  0.567033149221E+00  0.540580850947E+00  0.514319465565E+00  0.488322936052E+00
  0.462662475073E+00  0.437406718173E+00  0.412621712314E+00  0.388370699870E+00  0.364713701950E+00
  0.341706909494E+00  0.319401931111E+00  0.297844974171E+00  0.277076056681E+00  0.257128351519E+00
  0.238027750634E+00  0.219792711655E+00  0.202434385638E+00  0.185957055464E+00  0.170358790670E+00
  0.155632273675E+00  0.141765710205E+00  0.128743740469E+00  0.116548274282E+00  0.105159188243E+00
  0.945548448454E-01  0.847124194594E-01  0.756080480357E-01  0.672168316150E-01  0.595127492764E-01
  0.524685366730E-01  0.460555828689E-01
 pseudo wavefunction
  0.168606688784E-11  0.185595340837E-11  0.204295753554E-11  0.224880402334E-11  0.247539141036E-11
  0.272480953015E-11  0.299935878593E-11  0.330157136739E-11  0.363423460527E-11  0.400041667913E-11
  0.440349491544E-11  0.484718693689E-11  0.533558495033E-11  0.587319348954E-11  0.646497096087E-11
  0.711637537503E-11  0.783341468675E-11  0.862270220662E-11  0.949151759615E-11  0.104478740087E-10
  0.115005919954E-10  0.126593808578E-10  0.139349281974E-10  0.153389984884E-10  0.168845415824E-10
  0.185858121456E-10  0.204585011310E-10  0.225198804970E-10  0.247889625082E-10  0.272866750871E-10
  0.300360548336E-10  0.330624594934E-10  0.363938018347E-10  0.400608070894E-10  0.440972963348E-10
  0.485404984270E-10  0.534313933667E-10  0.588150902595E-10  0.647412433617E-10  0.712645100444E-10
  0.784450549027E-10  0.863491046584E-10  0.950495589737E-10  0.104626662810E-09  0.115168746532E-09
  0.126773040589E-09  0.139546572272E-09  0.153607152838E-09  0.169084464091E-09  0.186121254446E-09
  0.204874655507E-09  0.225517631302E-09  0.248240573542E-09  0.273253057617E-09  0.300785775524E-09
  0.331092663551E-09  0.364453244349E-09  0.401175204988E-09  0.441597234773E-09  0.486092148991E-09
  0.535070327415E-09  0.588983499253E-09  0.648328909476E-09  0.713653904932E-09  0.785560982554E-09
  0.864713346220E-09  0.951841023513E-09  0.104774759879E-08  0.115331762470E-08  0.126952478042E-08
  0.139744085194E-08  0.153824561718E-08  0.169323772716E-08  0.186384668343E-08  0.205164602244E-08
  0.225836782828E-08  0.248591870774E-08  0.273639737497E-08  0.301211400790E-08  0.331561155508E-08
  0.364968918923E-08  0.401742812405E-08  0.442222003218E-08  0.486779832652E-08  0.535827259348E-08
  0.589816649545E-08  0.649245949248E-08  0.714663276752E-08  0.786671977911E-08  0.865936190755E-08
  0.953186970791E-08  0.104922903346E-07  0.115494817596E-07  0.127131944684E-07  0.139941613879E-07
  0.154041968744E-07  0.169563056761E-07  0.186648028733E-07  0.205454459043E-07  0.226155798930E-07
  0.248942976193E-07  0.274026156075E-07  0.301636679562E-07  0.332029196980E-07  0.365484016558E-07
  0.402309689621E-07  0.442845856252E-07  0.487466377663E-07  0.536582784164E-07  0.590648070531E-07
  0.650160873756E-07  0.715670071728E-07  0.787779845226E-07  0.867155249926E-07  0.954528349785E-07
  0.105070496837E-06  0.115657212037E-06  0.127310619186E-06  0.140138194464E-06  0.154258242783E-06
  0.169800988798E-06  0.186909777833E-06  0.205742397793E-06  0.226472534259E-06  0.249291372164E-06
  0.274409358832E-06  0.302058144625E-06  0.332492719097E-06  0.365993762328E-06  0.402870233143E-06
  0.443462218044E-06  0.488144067132E-06  0.537327845926E-06  0.591467134878E-06  0.651061211616E-06
  0.716659654453E-06  0.788867409584E-06  0.868350368671E-06  0.955841508197E-06  0.105214764718E-05
  0.115815688546E-05  0.127484679119E-05  0.140329341275E-05  0.154468119839E-05  0.170031391465E-05
  0.187162666435E-05  0.206019911470E-05  0.226777005735E-05  0.249625343447E-05  0.274775597829E-05
  0.302459662663E-05  0.332932789290E-05  0.366475938737E-05  0.403398370604E-05  0.444040492530E-05
  0.488776996444E-05  0.538020310433E-05  0.592224397981E-05  0.651888939481E-05  0.717563934465E-05
  0.789854766816E-05  0.869427779510E-05  0.957016410060E-05  0.105342794300E-04  0.115955094135E-04
  0.127636342532E-04  0.140494187310E-04  0.154647112648E-04  0.170225529184E-04  0.187372973649E-04
  0.206247429024E-04  0.227022777288E-04  0.249890398048E-04  0.275060927679E-04  0.302766195024E-04
  0.333261351343E-04  0.366827213938E-04  0.403772844827E-04  0.444438387948E-04  0.489198190746E-04
  0.538464238499E-04  0.592689932622E-04  0.652374247224E-04  0.718066301627E-04  0.790370390246E-04
  0.869951515347E-04  0.957541472664E-04  0.105394554478E-03  0.116004986260E-03  0.127682950104E-03
  0.140535738179E-03  0.154681406280E-03  0.170249850208E-03  0.187383989205E-03  0.206241066967E-03
  0.226994081810E-03  0.249833358658E-03  0.274968276760E-03  0.302629168351E-03  0.333069404958E-03
  0.366567689607E-03  0.403430574942E-03  0.443995229158E-03  0.488632473668E-03  0.537750118721E-03
  0.591796625563E-03  0.651265126411E-03  0.716697836368E-03  0.788690894508E-03  0.867899674732E-03
  0.955044610641E-03  0.105091758257E-02  0.115638891921E-02  0.127241507073E-02  0.140004701528E-02
  0.154043946593E-02  0.169486095071E-02  0.186470484442E-02  0.205150143717E-02  0.225693113141E-02
  0.248283886601E-02  0.273124987392E-02  0.300438688701E-02  0.330468891037E-02  0.363483169610E-02
  0.399775005549E-02  0.439666215685E-02  0.483509596460E-02  0.531691798389E-02  0.584636448264E-02
  0.642807537053E-02  0.706713092072E-02  0.776909152552E-02  0.854004068088E-02  0.938663139611E-02
  0.103161362241E-01  0.113365011025E-01  0.124564031892E-01  0.136853128575E-01  0.150335600024E-01
  0.165124047752E-01  0.181341128306E-01  0.199120351212E-01  0.218606922131E-01  0.239958630198E-01
  0.263346777584E-01  0.288957148138E-01  0.316991010604E-01  0.347666150185E-01  0.381217920237E-01
  0.417900303500E-01  0.457986969438E-01  0.501772310997E-01  0.549572440264E-01  0.601726118065E-01
  0.658595587473E-01  0.720567275386E-01  0.788052319719E-01  0.861486872348E-01  0.941332119619E-01
  0.102807395303E+00  0.112222221261E+00  0.122430941444E+00  0.133488886221E+00  0.145453203009E+00
  0.158382509148E+00  0.172336445535E+00  0.187375115914E+00  0.203558395590E+00  0.220945092299E+00
  0.239591941305E+00  0.259552416441E+00  0.280875339071E+00  0.303603267945E+00  0.327770654848E+00
  0.353401754210E+00  0.380508279512E+00  0.409086806038E+00  0.439115928401E+00  0.470553192852E+00
  0.503331839063E+00  0.537357404197E+00  0.572504263960E+00  0.608612211217E+00  0.645483202628E+00
  0.682878437287E+00  0.720515967954E+00  0.758069083777E+00  0.795165741521E+00  0.831389357358E+00
  0.866281299109E+00  0.899345434274E+00  0.930055085283E+00  0.957862711824E+00  0.982212570921E+00
  0.100255648757E+01  0.101837269031E+01  0.102918741601E+01  0.103459865687E+01  0.103430100601E+01
  0.102811005864E+01  0.101598425963E+01  0.998041487969E+00  0.974567090076E+00  0.946009602636E+00
  0.912960162256E+00  0.876111739641E+00  0.836195052956E+00  0.793889524089E+00  0.749710160670E+00
  0.703876064322E+00  0.656348808571E+00  0.607156353075E+00  0.556334334871E+00  0.000000000000E+00
  0.000000000000E+00  0.000000000000E+00  0.000000000000E+00  0.000000000000E+00  0.000000000000E+00
  0.000000000000E+00  0.000000000000E+00  0.000000000000E+00  0.000000000000E+00  0.000000000000E+00
  0.000000000000E+00  0.000000000000E+00  0.000000000000E+00  0.000000000000E+00  0.000000000000E+00
  0.000000000000E+00  0.000000000000E+00  0.000000000000E+00  0.000000000000E+00  0.000000000000E+00
  0.000000000000E+00  0.000000000000E+00  0.000000000000E+00  0.000000000000E+00  0.000000000000E+00
  0.000000000000E+00  0.000000000000E+00  0.000000000000E+00  0.000000000000E+00  0.000000000000E+00
  0.000000000000E+00  0.000000000000E+00
 ae wavefunction
  0.303588239792E-07  0.330816381626E-07  0.360346807226E-07  0.392385695081E-07  0.427156855578E-07
  0.464903314708E-07  0.505889035289E-07  0.550400788033E-07  0.598750186031E-07  0.651275897415E-07
  0.708346052260E-07  0.770360861224E-07  0.837755465000E-07  0.911003035385E-07  0.990618150551E-07
  0.107716046928E-06  0.117123873101E-06  0.127351511104E-06  0.138470996291E-06  0.150560698280E-06
  0.163705883395E-06  0.177999327274E-06  0.193541982140E-06  0.210443703697E-06  0.228824043019E-06
  0.248813109305E-06  0.270552509922E-06  0.294196374691E-06  0.319912472092E-06  0.347883425677E-06
  0.378308039759E-06  0.411402744340E-06  0.447403170035E-06  0.486565864843E-06  0.529170165594E-06
  0.575520238200E-06  0.625947301987E-06  0.680812054904E-06  0.740507317890E-06  0.805460918320E-06
  0.876138834375E-06  0.953048624070E-06  0.103674316492E-05  0.112782473262E-05  0.122694944957E-05
  0.133483213722E-05  0.145225160885E-05  0.158005644327E-05  0.171917128322E-05  0.187060370651E-05
  0.203545172225E-05  0.221491194925E-05  0.241028853907E-05  0.262300291176E-05  0.285460437848E-05
  0.310678173235E-05  0.338137589573E-05  0.368039372067E-05  0.400602304793E-05  0.436064913931E-05
  0.474687260891E-05  0.516752899001E-05  0.562571008682E-05  0.612478727377E-05  0.666843691978E-05
  0.726066813109E-05  0.790585302339E-05  0.860875975327E-05  0.937458855946E-05  0.102090110869E-04
  0.111182132913E-04  0.121089422474E-04  0.131885572149E-04  0.143650853456E-04  0.156472824493E-04
  0.170446992755E-04  0.185677538039E-04  0.202278100842E-04  0.220372642099E-04  0.240096380636E-04
  0.261596815264E-04  0.285034839024E-04  0.310585953765E-04  0.338441593927E-04  0.368810569140E-04
  0.401920636117E-04  0.438020211139E-04  0.477380235450E-04  0.520296206843E-04  0.567090391886E-04
  0.618114234379E-04  0.673750976951E-04  0.734418514059E-04  0.800572496148E-04  0.872709706307E-04
  0.951371732459E-04  0.103714895995E-03  0.113068491131E-03  0.123268096215E-03  0.134390146418E-03
  0.146517930885E-03  0.159742196764E-03  0.174161804756E-03  0.189884440322E-03  0.207027385015E-03
  0.225718352664E-03  0.246096395532E-03  0.268312885849E-03  0.292532578566E-03  0.318934761473E-03
  0.347714499294E-03  0.379083978741E-03  0.413273961947E-03  0.450535356137E-03  0.491140907856E-03
  0.535387030510E-03  0.583595774442E-03  0.636116949257E-03  0.693330408527E-03  0.755648507497E-03
  0.823518744821E-03  0.897426599815E-03  0.977898577054E-03  0.106550547053E-02  0.116086585986E-02
  0.126464985131E-02  0.137758307648E-02  0.150045096166E-02  0.163410328080E-02  0.177945900477E-02
  0.193751145939E-02  0.210933380411E-02  0.229608484254E-02  0.249901517503E-02  0.271947370235E-02
  0.295891448781E-02  0.321890398352E-02  0.350112862375E-02  0.380740278621E-02  0.413967711806E-02
  0.450004722038E-02  0.489076267973E-02  0.531423643078E-02  0.577305442772E-02  0.626998559568E-02
  0.680799202557E-02  0.739023936729E-02  0.802010736629E-02  0.870120047794E-02  0.943735848184E-02
  0.102326670051E-01  0.110914678484E-01  0.120183689936E-01  0.130182541526E-01  0.140962916987E-01
  0.152579428022E-01  0.165089685673E-01  0.178554359454E-01  0.193037221735E-01  0.208605174579E-01
  0.225328255946E-01  0.243279621845E-01  0.262535500641E-01  0.283175115364E-01  0.305280569414E-01
  0.328936690647E-01  0.354230828366E-01  0.381252597386E-01  0.410093563048E-01  0.440846860845E-01
  0.473606744352E-01  0.508468055162E-01  0.545525608702E-01  0.584873489902E-01  0.626604252827E-01
  0.670808018426E-01  0.717571464654E-01  0.766976703368E-01  0.819100038627E-01  0.874010601412E-01
  0.931768856401E-01  0.992424977276E-01  0.105601708831E+00  0.112256937147E+00  0.119209004018E+00
  0.126456918305E+00  0.133997648354E+00  0.141825882408E+00  0.149933778674E+00  0.158310706596E+00
  0.166942981273E+00  0.175813593396E+00  0.184901937540E+00  0.194183542123E+00  0.203629804853E+00
  0.213207738000E+00  0.222879728358E+00  0.232603317282E+00  0.242331006660E+00  0.252010097195E+00
  0.261582565731E+00  0.270984988724E+00  0.280148519123E+00  0.288998923917E+00  0.297456689303E+00
  0.305437199769E+00  0.312850996521E+00  0.319604119821E+00  0.325598539509E+00  0.330732678852E+00
  0.334902039206E+00  0.337999936214E+00  0.339918361209E+00  0.340548982087E+00  0.339784294118E+00
  0.337518921535E+00  0.333651057397E+00  0.328084018724E+00  0.320727892216E+00  0.311501251026E+00
  0.300332927518E+00  0.287163825595E+00  0.271948751131E+00  0.254658234125E+00  0.235280313191E+00
  0.213822251565E+00  0.190312152215E+00  0.164800437568E+00  0.137361156628E+00  0.108093079582E+00
  0.771205379656E-01  0.445939675459E-01  0.106901118331E-01 -0.243881532068E-01 -0.604124081652E-01
 -0.971297217461E-01 -0.134264146066E+00 -0.171518686285E+00 -0.208577736733E+00 -0.245109941653E+00
 -0.280771385400E+00 -0.315208962820E+00 -0.348063779802E+00 -0.378974560408E+00 -0.407581309165E+00
 -0.433529715436E+00 -0.456476571403E+00 -0.476095732855E+00 -0.492083727051E+00 -0.504164548146E+00
 -0.512093762467E+00 -0.515662160034E+00 -0.514699019540E+00 -0.509074895913E+00 -0.498703784320E+00
 -0.483544547998E+00 -0.463601570803E+00 -0.438924661765E+00 -0.409608277816E+00 -0.375790144401E+00
 -0.337649353024E+00 -0.295404007356E+00 -0.249308480883E+00 -0.199650340591E+00 -0.146746984898E+00
 -0.909420401639E-01 -0.326015595642E-01  0.278899296946E-01  0.901334804247E-01  0.153719824306E+00
  0.218233451454E+00  0.283256597180E+00  0.348373052261E+00  0.413171708063E+00  0.477249760708E+00
  0.540215542710E+00  0.601691025956E+00  0.661314121327E+00  0.718740935392E+00  0.773648106265E+00
  0.825735232447E+00  0.874727298260E+00  0.920376937749E+00  0.962466382901E+00  0.100080898006E+01
  0.103525021256E+01  0.106566819969E+01  0.109197367167E+01  0.111410943750E+01  0.113204937431E+01
  0.114579698061E+01  0.115538354445E+01  0.116086597423E+01  0.116232435823E+01  0.115985929309E+01
  0.115358905048E+01  0.114364662600E+01  0.113017672742E+01  0.111333275650E+01  0.109327383065E+01
  0.107016190262E+01  0.104415900336E+01  0.101542465682E+01  0.984113498817E+00  0.950373100448E+00
  0.914342075679E+00  0.876148458743E+00  0.835908416587E+00  0.793725308329E+00  0.749689094972E+00
  0.703876064322E+00  0.656348808571E+00  0.607156353075E+00  0.556334334871E+00  0.000000000000E+00
  0.000000000000E+00  0.000000000000E+00  0.000000000000E+00  0.000000000000E+00  0.000000000000E+00
  0.000000000000E+00  0.000000000000E+00  0.000000000000E+00  0.000000000000E+00  0.000000000000E+00
  0.000000000000E+00  0.000000000000E+00  0.000000000000E+00  0.000000000000E+00  0.000000000000E+00
  0.000000000000E+00  0.000000000000E+00  0.000000000000E+00  0.000000000000E+00  0.000000000000E+00
  0.000000000000E+00  0.000000000000E+00  0.000000000000E+00  0.000000000000E+00  0.000000000000E+00
  0.000000000000E+00  0.000000000000E+00  0.000000000000E+00  0.000000000000E+00  0.000000000000E+00
  0.000000000000E+00  0.000000000000E+00
 End of Dataset
  PAW_PBE Se 06Sep2000                   
   6.00000000000000     
 parameters from PSCTR are:
   VRHFIN =Se: s2p4
   LEXCH  = PE
   EATOM  =   257.1286 eV,   18.8984 Ry

   TITEL  = PAW_PBE Se 06Sep2000
   LULTRA =        F    use ultrasoft PP ?
   IUNSCR =        1    unscreen: 0-lin 1-nonlin 2-no
   RPACOR =    1.900    partial core radius
   POMASS =   78.960; ZVAL   =    6.000    mass and valenz
   RCORE  =    2.100    outmost cutoff radius
   RWIGS  =    2.200; RWIGS  =    1.164    wigner-seitz radius (au A)
   ENMAX  =  211.555; ENMIN  =  158.666 eV
   ICORE  =        3    local potential
   LCOR   =        T    correct aug charges
   LPAW   =        T    paw PP
   EAUG   =  446.842
   DEXC   =    0.000
   RMAX   =    2.147    core radius for proj-oper
   RAUG   =    1.300    factor for augmentation sphere
   RDEP   =    2.177    radius for radial grids
   RDEPT  =    1.928    core radius for aug-charge
 
   Atomic configuration
   10 entries
     n  l   j            E        occ.
     1  0  0.50    -12503.4787   2.0000
     2  0  0.50     -1606.9547   2.0000
     2  1  1.50     -1413.3140   6.0000
     3  0  0.50      -213.4885   2.0000
     3  1  1.50      -152.9538   6.0000
     3  2  2.50       -53.1221  10.0000
     4  0  0.50       -17.2865   2.0000
     4  1  0.50        -6.5110   4.0000
     4  2  2.50        -6.8029   0.0000
     4  3  2.50        -6.8029   0.0000
   Description
     l       E           TYP  RCUT    TYP  RCUT
     0    -17.2865377     23  2.100
     0    -15.3094411     23  2.100
     1     -6.5110275     23  2.100
     1     -0.0695192     23  2.100
     2     -6.8029130     23  2.100
     3     -1.3605826      7  2.100
   Error from kinetic energy argument (eV)
   NDATA  =      100
   STEP   =   20.000   1.050
  55.0      51.6      49.9      46.6      44.9      41.8      38.8      37.3
  34.5      31.8      30.5      28.1      25.8      23.6      21.6      19.7
  17.9      16.3      14.8      12.8      11.5      10.4      8.93      8.03
  7.22      6.14      5.21      4.66      3.93      3.31      2.78      2.33
  1.95      1.63      1.35      1.12     0.868     0.714     0.548     0.447
 0.339     0.255     0.190     0.140     0.102     0.739E-01 0.528E-01 0.343E-01
 0.240E-01 0.154E-01 0.101E-01 0.752E-02 0.562E-02 0.467E-02 0.420E-02 0.406E-02
 0.396E-02 0.378E-02 0.349E-02 0.309E-02 0.263E-02 0.217E-02 0.174E-02 0.133E-02
 0.108E-02 0.887E-03 0.783E-03 0.733E-03 0.700E-03 0.665E-03 0.605E-03 0.525E-03
 0.438E-03 0.358E-03 0.291E-03 0.255E-03 0.233E-03 0.221E-03 0.206E-03 0.186E-03
 0.157E-03 0.130E-03 0.110E-03 0.968E-04 0.904E-04 0.845E-04 0.758E-04 0.640E-04
 0.533E-04 0.464E-04 0.427E-04 0.400E-04 0.353E-04 0.300E-04 0.253E-04 0.228E-04
 0.212E-04 0.191E-04 0.161E-04 0.138E-04
END of PSCTR-controll parameters
 local part
   88.8171214632094     
  0.58119705E+02  0.58113162E+02  0.58106765E+02  0.58096097E+02  0.58081142E+02
  0.58061880E+02  0.58038272E+02  0.58010267E+02  0.57977791E+02  0.57940750E+02
  0.57899024E+02  0.57852470E+02  0.57800922E+02  0.57744189E+02  0.57682064E+02
  0.57614320E+02  0.57540718E+02  0.57461007E+02  0.57374922E+02  0.57282194E+02
  0.57182543E+02  0.57075679E+02  0.56961308E+02  0.56839123E+02  0.56708810E+02
  0.56570046E+02  0.56422501E+02  0.56265835E+02  0.56099705E+02  0.55923761E+02
  0.55737654E+02  0.55541030E+02  0.55333538E+02  0.55114830E+02  0.54884561E+02
  0.54642391E+02  0.54387988E+02  0.54121025E+02  0.53841188E+02  0.53548173E+02
  0.53241688E+02  0.52921457E+02  0.52587219E+02  0.52238734E+02  0.51875782E+02
  0.51498165E+02  0.51105711E+02  0.50698274E+02  0.50275735E+02  0.49838006E+02
  0.49385028E+02  0.48916775E+02  0.48433256E+02  0.47934512E+02  0.47420624E+02
  0.46891707E+02  0.46347916E+02  0.45789445E+02  0.45216530E+02  0.44629444E+02
  0.44028506E+02  0.43414072E+02  0.42786542E+02  0.42146356E+02  0.41493996E+02
  0.40829980E+02  0.40154871E+02  0.39469267E+02  0.38773804E+02  0.38069154E+02
  0.37356026E+02  0.36635159E+02  0.35907327E+02  0.35173332E+02  0.34434001E+02
  0.33690188E+02  0.32942771E+02  0.32192643E+02  0.31440717E+02  0.30687919E+02
  0.29935185E+02  0.29183461E+02  0.28433695E+02  0.27686839E+02  0.26943840E+02
  0.26205644E+02  0.25473186E+02  0.24747389E+02  0.24029161E+02  0.23319394E+02
  0.22618954E+02  0.21928685E+02  0.21249403E+02  0.20581892E+02  0.19926902E+02
  0.19285148E+02  0.18657305E+02  0.18044007E+02  0.17445844E+02  0.16863363E+02
  0.16297059E+02  0.15747382E+02  0.15214729E+02  0.14699447E+02  0.14201828E+02
  0.13722114E+02  0.13260491E+02  0.12817090E+02  0.12391992E+02  0.11985219E+02
  0.11596745E+02  0.11226488E+02  0.10874317E+02  0.10540050E+02  0.10223456E+02
  0.99242571E+01  0.96421302E+01  0.93767091E+01  0.91275864E+01  0.88943164E+01
  0.86764173E+01  0.84733742E+01  0.82846418E+01  0.81096471E+01  0.79477931E+01
  0.77984609E+01  0.76610139E+01  0.75347999E+01  0.74191551E+01  0.73134070E+01
  0.72168775E+01  0.71288862E+01  0.70487535E+01  0.69758037E+01  0.69093679E+01
  0.68487869E+01  0.67934143E+01  0.67426184E+01  0.66957853E+01  0.66523212E+01
  0.66116542E+01  0.65732366E+01  0.65365465E+01  0.65010899E+01  0.64664015E+01
  0.64320466E+01  0.63976220E+01  0.63627565E+01  0.63271122E+01  0.62903844E+01
  0.62523022E+01  0.62126284E+01  0.61711592E+01  0.61277242E+01  0.60821855E+01
  0.60344375E+01  0.59844052E+01  0.59320443E+01  0.58773390E+01  0.58203013E+01
  0.57609697E+01  0.56994071E+01  0.56356995E+01  0.55699542E+01  0.55022982E+01
  0.54328758E+01  0.53618470E+01  0.52893857E+01  0.52156772E+01  0.51409166E+01
  0.50653069E+01  0.49890568E+01  0.49123787E+01  0.48354873E+01  0.47585971E+01
  0.46819214E+01  0.46056697E+01  0.45300470E+01  0.44552516E+01  0.43814740E+01
  0.43088954E+01  0.42376867E+01  0.41680074E+01  0.41000045E+01  0.40338119E+01
  0.39695497E+01  0.39073233E+01  0.38472236E+01  0.37893260E+01  0.37336908E+01
  0.36803628E+01  0.36293716E+01  0.35807314E+01  0.35344417E+01  0.34904876E+01
  0.34488404E+01  0.34094577E+01  0.33722850E+01  0.33372555E+01  0.33042920E+01
  0.32733067E+01  0.32442031E+01  0.32168763E+01  0.31912146E+01  0.31671000E+01
  0.31444099E+01  0.31230174E+01  0.31027934E+01  0.30836066E+01  0.30653254E+01
  0.30478186E+01  0.30309565E+01  0.30146117E+01  0.29986601E+01  0.29829821E+01
  0.29674628E+01  0.29519932E+01  0.29364707E+01  0.29207995E+01  0.29048916E+01
  0.28886669E+01  0.28720537E+01  0.28549888E+01  0.28374183E+01  0.28192969E+01
  0.28005887E+01  0.27812668E+01  0.27613133E+01  0.27407192E+01  0.27194840E+01
  0.26976154E+01  0.26751293E+01  0.26520489E+01  0.26284046E+01  0.26042332E+01
  0.25795776E+01  0.25544862E+01  0.25290121E+01  0.25032127E+01  0.24771487E+01
  0.24508839E+01  0.24244842E+01  0.23980169E+01  0.23715503E+01  0.23451527E+01
  0.23188919E+01  0.22928348E+01  0.22670465E+01  0.22415899E+01  0.22165251E+01
  0.21919091E+01  0.21677949E+01  0.21442319E+01  0.21212647E+01  0.20989331E+01
  0.20772721E+01  0.20563114E+01  0.20360752E+01  0.20165823E+01  0.19978460E+01
  0.19798740E+01  0.19626684E+01  0.19462261E+01  0.19305387E+01  0.19155927E+01
  0.19013699E+01  0.18878472E+01  0.18749976E+01  0.18627899E+01  0.18511893E+01
  0.18401578E+01  0.18296546E+01  0.18196365E+01  0.18100582E+01  0.18008730E+01
  0.17920331E+01  0.17834898E+01  0.17751945E+01  0.17670987E+01  0.17591544E+01
  0.17513147E+01  0.17435341E+01  0.17357689E+01  0.17279773E+01  0.17201201E+01
  0.17121608E+01  0.17040656E+01  0.16958042E+01  0.16873495E+01  0.16786779E+01
  0.16697696E+01  0.16606083E+01  0.16511817E+01  0.16414811E+01  0.16315018E+01
  0.16212424E+01  0.16107055E+01  0.15998970E+01  0.15888263E+01  0.15775060E+01
  0.15659514E+01  0.15541810E+01  0.15422156E+01  0.15300783E+01  0.15177944E+01
  0.15053906E+01  0.14928954E+01  0.14803380E+01  0.14677487E+01  0.14551582E+01
  0.14425976E+01  0.14300975E+01  0.14176885E+01  0.14054003E+01  0.13932618E+01
  0.13813006E+01  0.13695431E+01  0.13580137E+01  0.13467353E+01  0.13357283E+01
  0.13250114E+01  0.13146006E+01  0.13045095E+01  0.12947493E+01  0.12853285E+01
  0.12762529E+01  0.12675259E+01  0.12591480E+01  0.12511172E+01  0.12434291E+01
  0.12360767E+01  0.12290507E+01  0.12223397E+01  0.12159299E+01  0.12098059E+01
  0.12039504E+01  0.11983444E+01  0.11929679E+01  0.11877995E+01  0.11828168E+01
  0.11779968E+01  0.11733160E+01  0.11687506E+01  0.11642767E+01  0.11598706E+01
  0.11555090E+01  0.11511690E+01  0.11468286E+01  0.11424668E+01  0.11380636E+01
  0.11336002E+01  0.11290595E+01  0.11244257E+01  0.11196849E+01  0.11148248E+01
  0.11098349E+01  0.11047068E+01  0.10994340E+01  0.10940117E+01  0.10884374E+01
  0.10827103E+01  0.10768316E+01  0.10708044E+01  0.10646335E+01  0.10583256E+01
  0.10518889E+01  0.10453329E+01  0.10386690E+01  0.10319094E+01  0.10250676E+01
  0.10181582E+01  0.10111962E+01  0.10041976E+01  0.99717872E+00  0.99015629E+00
  0.98314709E+00  0.97616794E+00  0.96923545E+00  0.96236595E+00  0.95557523E+00
  0.94887851E+00  0.94229020E+00  0.93582384E+00  0.92949195E+00  0.92330592E+00
  0.91727595E+00  0.91141093E+00  0.90571841E+00  0.90020453E+00  0.89487398E+00
  0.88973002E+00  0.88477440E+00  0.88000741E+00  0.87542791E+00  0.87103331E+00
  0.86681964E+00  0.86278162E+00  0.85891268E+00  0.85520509E+00  0.85165003E+00
  0.84823767E+00  0.84495731E+00  0.84179746E+00  0.83874599E+00  0.83579025E+00
  0.83291716E+00  0.83011338E+00  0.82736538E+00  0.82465964E+00  0.82198271E+00
  0.81932134E+00  0.81666265E+00  0.81399418E+00  0.81130404E+00  0.80858100E+00
  0.80581459E+00  0.80299518E+00  0.80011406E+00  0.79716351E+00  0.79413683E+00
  0.79102841E+00  0.78783375E+00  0.78454950E+00  0.78117343E+00  0.77770447E+00
  0.77414270E+00  0.77048931E+00  0.76674659E+00  0.76291789E+00  0.75900755E+00
  0.75502087E+00  0.75096403E+00  0.74684401E+00  0.74266853E+00  0.73844591E+00
  0.73418504E+00  0.72989526E+00  0.72558626E+00  0.72126797E+00  0.71695051E+00
  0.71264402E+00  0.70835864E+00  0.70410436E+00  0.69989092E+00  0.69572777E+00
  0.69162392E+00  0.68758791E+00  0.68362769E+00  0.67975057E+00  0.67596316E+00
  0.67227132E+00  0.66868010E+00  0.66519372E+00  0.66181552E+00  0.65854795E+00
  0.65539258E+00  0.65235006E+00  0.64942015E+00  0.64660172E+00  0.64389275E+00
  0.64129041E+00  0.63879104E+00  0.63639024E+00  0.63408290E+00  0.63186325E+00
  0.62972495E+00  0.62766113E+00  0.62566448E+00  0.62372732E+00  0.62184169E+00
  0.61999938E+00  0.61819207E+00  0.61641136E+00  0.61464889E+00  0.61289637E+00
  0.61114569E+00  0.60938900E+00  0.60761875E+00  0.60582779E+00  0.60400941E+00
  0.60215741E+00  0.60026616E+00  0.59833060E+00  0.59634634E+00  0.59430964E+00
  0.59221747E+00  0.59006751E+00  0.58785813E+00  0.58558849E+00  0.58325841E+00
  0.58086849E+00  0.57841998E+00  0.57591487E+00  0.57335575E+00  0.57074587E+00
  0.56808903E+00  0.56538959E+00  0.56265238E+00  0.55988264E+00  0.55708600E+00
  0.55426840E+00  0.55143602E+00  0.54859522E+00  0.54575251E+00  0.54291445E+00
  0.54008757E+00  0.53727838E+00  0.53449322E+00  0.53173827E+00  0.52901944E+00
  0.52634235E+00  0.52371226E+00  0.52113402E+00  0.51861203E+00  0.51615023E+00
  0.51375202E+00  0.51142028E+00  0.50915733E+00  0.50696489E+00  0.50484414E+00
  0.50279562E+00  0.50081931E+00  0.49891460E+00  0.49708030E+00  0.49531467E+00
  0.49361543E+00  0.49197978E+00  0.49040448E+00  0.48888582E+00  0.48741972E+00
  0.48600173E+00  0.48462711E+00  0.48329086E+00  0.48198778E+00  0.48071249E+00
  0.47945953E+00  0.47822339E+00  0.47699855E+00  0.47577953E+00  0.47456097E+00
  0.47333766E+00  0.47210460E+00  0.47085703E+00  0.46959048E+00  0.46830082E+00
  0.46698427E+00  0.46563747E+00  0.46425745E+00  0.46284172E+00  0.46138822E+00
  0.45989537E+00  0.45836209E+00  0.45678777E+00  0.45517229E+00  0.45351602E+00
  0.45181980E+00  0.45008494E+00  0.44831317E+00  0.44650667E+00  0.44466799E+00
  0.44280006E+00  0.44090613E+00  0.43898972E+00  0.43705465E+00  0.43510491E+00
  0.43314468E+00  0.43117827E+00  0.42921009E+00  0.42724457E+00  0.42528617E+00
  0.42333928E+00  0.42140822E+00  0.41949720E+00  0.41761023E+00  0.41575113E+00
  0.41392350E+00  0.41213063E+00  0.41037553E+00  0.40866088E+00  0.40698900E+00
  0.40536186E+00  0.40378103E+00  0.40224771E+00  0.40076267E+00  0.39932629E+00
  0.39793857E+00  0.39659906E+00  0.39530695E+00  0.39406105E+00  0.39285976E+00
  0.39170119E+00  0.39058307E+00  0.38950287E+00  0.38845777E+00  0.38744471E+00
  0.38646042E+00  0.38550145E+00  0.38456422E+00  0.38364504E+00  0.38274014E+00
  0.38184572E+00  0.38095798E+00  0.38007314E+00  0.37918754E+00  0.37829756E+00
  0.37739979E+00  0.37649094E+00  0.37556796E+00  0.37462802E+00  0.37366852E+00
  0.37268719E+00  0.37168200E+00  0.37065127E+00  0.36959361E+00  0.36850799E+00
  0.36739369E+00  0.36625035E+00  0.36507794E+00  0.36387678E+00  0.36264749E+00
  0.36139106E+00  0.36010875E+00  0.35880213E+00  0.35747305E+00  0.35612358E+00
  0.35475606E+00  0.35337299E+00  0.35197709E+00  0.35057119E+00  0.34915825E+00
  0.34774131E+00  0.34632349E+00  0.34490792E+00  0.34349774E+00  0.34209604E+00
  0.34070585E+00  0.33933013E+00  0.33797169E+00  0.33663321E+00  0.33531718E+00
  0.33402590E+00  0.33276146E+00  0.33152570E+00  0.33032022E+00  0.32914636E+00
  0.32800517E+00  0.32689744E+00  0.32582368E+00  0.32478408E+00  0.32377857E+00
  0.32280679E+00  0.32186809E+00  0.32096156E+00  0.32008602E+00  0.31924005E+00
  0.31842200E+00  0.31763000E+00  0.31686201E+00  0.31611580E+00  0.31538901E+00
  0.31467915E+00  0.31398363E+00  0.31329982E+00  0.31262500E+00  0.31195646E+00
  0.31129148E+00  0.31062737E+00  0.30996153E+00  0.30929139E+00  0.30861454E+00
  0.30792867E+00  0.30723162E+00  0.30652143E+00  0.30579629E+00  0.30505462E+00
  0.30429505E+00  0.30351642E+00  0.30271784E+00  0.30189862E+00  0.30105833E+00
  0.30019680E+00  0.29931409E+00  0.29841050E+00  0.29748659E+00  0.29654312E+00
  0.29558111E+00  0.29460176E+00  0.29360646E+00  0.29259681E+00  0.29157455E+00
  0.29054155E+00  0.28949981E+00  0.28845144E+00  0.28739863E+00  0.28634361E+00
  0.28528865E+00  0.28423605E+00  0.28318809E+00  0.28214701E+00  0.28111501E+00
  0.28009422E+00  0.27908666E+00  0.27809423E+00  0.27711872E+00  0.27616175E+00
  0.27522478E+00  0.27430911E+00  0.27341582E+00  0.27254582E+00  0.27169982E+00
  0.27087830E+00  0.27008156E+00  0.26930965E+00  0.26856245E+00  0.26783960E+00
  0.26714055E+00  0.26646455E+00  0.26581065E+00  0.26517775E+00  0.26456456E+00
  0.26396964E+00  0.26339143E+00  0.26282825E+00  0.26227831E+00  0.26173974E+00
  0.26121060E+00  0.26068894E+00  0.26017273E+00  0.25965996E+00  0.25914865E+00
  0.25863681E+00  0.25812254E+00  0.25760397E+00  0.25707936E+00  0.25654704E+00
  0.25600547E+00  0.25545325E+00  0.25488911E+00  0.25431195E+00  0.25372083E+00
  0.25311498E+00  0.25249381E+00  0.25185690E+00  0.25120403E+00  0.25053514E+00
  0.24985038E+00  0.24915006E+00  0.24843469E+00  0.24770493E+00  0.24696160E+00
  0.24620569E+00  0.24543831E+00  0.24466072E+00  0.24387428E+00  0.24308044E+00
  0.24228077E+00  0.24147686E+00  0.24067038E+00  0.23986304E+00  0.23905656E+00
  0.23825265E+00  0.23745303E+00  0.23665937E+00  0.23587331E+00  0.23509641E+00
  0.23433015E+00  0.23357593E+00  0.23283503E+00  0.23210862E+00  0.23139774E+00
  0.23070329E+00  0.23002601E+00  0.22936653E+00  0.22872527E+00  0.22810254E+00
  0.22749845E+00  0.22691299E+00  0.22634596E+00  0.22579701E+00  0.22526564E+00
  0.22475120E+00  0.22425290E+00  0.22376982E+00  0.22330094E+00  0.22284509E+00
  0.22240103E+00  0.22196744E+00  0.22154292E+00  0.22112602E+00  0.22071524E+00
  0.22030906E+00  0.21990595E+00  0.21950438E+00  0.21910284E+00  0.21869984E+00
  0.21829393E+00  0.21788376E+00  0.21746801E+00  0.21704546E+00  0.21661500E+00
  0.21617561E+00  0.21572639E+00  0.21526658E+00  0.21479552E+00  0.21431272E+00
  0.21381779E+00  0.21331050E+00  0.21279077E+00  0.21225865E+00  0.21171433E+00
  0.21115813E+00  0.21059053E+00  0.21001211E+00  0.20942358E+00  0.20882578E+00
  0.20821963E+00  0.20760614E+00  0.20698643E+00  0.20636167E+00  0.20573309E+00
  0.20510197E+00  0.20446961E+00  0.20383735E+00  0.20320653E+00  0.20257847E+00
  0.20195449E+00  0.20133587E+00  0.20072385E+00  0.20011961E+00  0.19952426E+00
  0.19893883E+00  0.19836428E+00  0.19780144E+00  0.19725106E+00  0.19671377E+00
  0.19619008E+00  0.19568039E+00  0.19518497E+00  0.19470397E+00  0.19423741E+00
  0.19378518E+00  0.19334706E+00  0.19292270E+00  0.19251164E+00  0.19211329E+00
  0.19172697E+00  0.19135191E+00  0.19098723E+00  0.19063199E+00  0.19028516E+00
  0.18994567E+00  0.18961239E+00  0.18928417E+00  0.18895980E+00  0.18863810E+00
  0.18831785E+00  0.18799786E+00  0.18767695E+00  0.18735398E+00  0.18702786E+00
  0.18669752E+00  0.18636199E+00  0.18602036E+00  0.18567181E+00  0.18531558E+00
  0.18495104E+00  0.18457766E+00  0.18419498E+00  0.18380268E+00  0.18340055E+00
  0.18298848E+00  0.18256646E+00  0.18213463E+00  0.18169320E+00  0.18124252E+00
  0.18078301E+00  0.18031521E+00  0.17983976E+00  0.17935736E+00  0.17886881E+00
  0.17837496E+00  0.17787673E+00  0.17737509E+00  0.17687104E+00  0.17636563E+00
  0.17585991E+00  0.17535495E+00  0.17485181E+00  0.17435154E+00  0.17385518E+00
  0.17336373E+00  0.17287814E+00  0.17239933E+00  0.17192814E+00  0.17146536E+00
  0.17101168E+00  0.17056772E+00  0.17013403E+00  0.16971104E+00  0.16929910E+00
  0.16889846E+00  0.16850927E+00  0.16813157E+00  0.16776532E+00  0.16741036E+00
  0.16706645E+00  0.16673323E+00  0.16641028E+00  0.16609707E+00  0.16579300E+00
  0.16549738E+00  0.16520948E+00  0.16492849E+00  0.16465355E+00  0.16438378E+00
  0.16411823E+00  0.16385596E+00  0.16359600E+00  0.16333739E+00  0.16307914E+00
  0.16282031E+00  0.16255997E+00  0.16229721E+00  0.16203117E+00  0.16176105E+00
  0.16148609E+00  0.16120559E+00  0.16091895E+00  0.16062561E+00  0.16032511E+00
  0.16001707E+00  0.15970120E+00  0.15937730E+00  0.15904526E+00  0.15870505E+00
  0.15835674E+00  0.15800050E+00  0.15763657E+00  0.15726527E+00  0.15688703E+00
  0.15650234E+00  0.15611175E+00  0.15571589E+00  0.15531545E+00  0.15491117E+00
  0.15450382E+00  0.15409421E+00  0.15368319E+00  0.15327161E+00  0.15286036E+00
  0.15245029E+00  0.15204228E+00  0.15163717E+00  0.15123579E+00  0.15083894E+00
  0.15044737E+00  0.15006179E+00  0.14968286E+00  0.14931118E+00  0.14894728E+00
  0.14859161E+00  0.14824456E+00  0.14790644E+00  0.14757748E+00  0.14725782E+00
  0.14694753E+00  0.14664659E+00  0.14635491E+00  0.14607229E+00  0.14579848E+00
  0.14553315E+00  0.14527588E+00  0.14502619E+00  0.14478355E+00  0.14454737E+00
  0.14431698E+00  0.14409170E+00  0.14387079E+00  0.14365351E+00  0.14343907E+00
  0.14322668E+00  0.14301552E+00  0.14280481E+00  0.14259375E+00  0.14238157E+00
  0.14216751E+00  0.14195086E+00  0.14173092E+00  0.14150706E+00  0.14127870E+00
  0.14104530E+00  0.14080640E+00  0.14056159E+00  0.14031054E+00  0.14005298E+00
  0.13978872E+00  0.13951765E+00  0.13923974E+00  0.13895501E+00  0.13866358E+00
 gradient corrections used for XC
           5
 core charge-density (partial)
  0.13714802E+01  0.13708420E+01  0.13689293E+01  0.13657471E+01  0.13613042E+01
  0.13556125E+01  0.13486875E+01  0.13405478E+01  0.13312151E+01  0.13207145E+01
  0.13090737E+01  0.12963235E+01  0.12824973E+01  0.12676311E+01  0.12517632E+01
  0.12349342E+01  0.12171868E+01  0.11985655E+01  0.11791164E+01  0.11588873E+01
  0.11379271E+01  0.11162859E+01  0.10940147E+01  0.10711651E+01  0.10477893E+01
  0.10239398E+01  0.99966929E+00  0.97503020E+00  0.95007488E+00  0.92485521E+00
  0.89942250E+00  0.87382731E+00  0.84811927E+00  0.82234701E+00  0.79655797E+00
  0.77079826E+00  0.74511261E+00  0.71954421E+00  0.69413462E+00  0.66892370E+00
  0.64394953E+00  0.61924835E+00  0.59485447E+00  0.57080028E+00  0.54711617E+00
  0.52383051E+00  0.50096966E+00  0.47855791E+00  0.45661754E+00  0.43516877E+00
  0.41422982E+00  0.39381691E+00  0.37394428E+00  0.35462427E+00  0.33586729E+00
  0.31768193E+00  0.30007499E+00  0.28305151E+00  0.26661489E+00  0.25076688E+00
  0.23550771E+00  0.22083611E+00  0.20674944E+00  0.19324369E+00  0.18031361E+00
  0.16795277E+00  0.15615363E+00  0.14490762E+00  0.13420522E+00  0.12403605E+00
  0.11438890E+00  0.10525184E+00  0.96612320E-01  0.88457171E-01  0.80772736E-01
  0.73544911E-01  0.66759221E-01  0.60400878E-01  0.54454850E-01  0.48905916E-01
  0.43738727E-01  0.38937857E-01  0.34487857E-01  0.30373305E-01  0.26578850E-01
  0.23089260E-01  0.19889458E-01  0.16964564E-01  0.14299925E-01  0.11881156E-01
  0.96941599E-02  0.77251625E-02  0.59607318E-02  0.43878017E-02  0.29936906E-02
  0.17661179E-02  0.69321854E-03 -0.23644524E-03 -0.10338745E-02 -0.17096258E-02
 -0.22738060E-02 -0.27360686E-02 -0.31056124E-02 -0.33911812E-02 -0.36010660E-02
 -0.37431078E-02 -0.38247032E-02 -0.38528096E-02 -0.38339532E-02 -0.37742371E-02
 -0.36793510E-02 -0.35545815E-02 -0.34048238E-02 -0.32345929E-02 -0.30480373E-02
 -0.28489512E-02 -0.26407890E-02 -0.24266790E-02 -0.22094379E-02 -0.19915853E-02
 -0.17753587E-02 -0.15627281E-02 -0.13554111E-02 -0.11548877E-02 -0.96241490E-03
 -0.77904135E-03 -0.60562182E-03 -0.44283123E-03 -0.29117848E-03 -0.15101996E-03
 -0.22572647E-04  0.94073164E-04  0.19894159E-03  0.29215933E-03  0.37394431E-03
  0.44459483E-03  0.50447920E-03  0.55402594E-03  0.59371446E-03  0.62406629E-03
  0.64563685E-03  0.65900776E-03  0.66477966E-03  0.66356563E-03  0.65598499E-03
  0.64265779E-03  0.62419966E-03  0.60121723E-03  0.57430400E-03  0.54403668E-03
  0.51097196E-03  0.47564374E-03  0.43856072E-03  0.40020446E-03  0.36102772E-03
  0.32145321E-03  0.28187266E-03  0.24264617E-03  0.20410192E-03  0.16653605E-03
  0.13021288E-03  0.95365254E-04  0.62195213E-04  0.30874743E-04  0.15467389E-05
 -0.25673891E-04 -0.50699001E-04 -0.73465874E-04 -0.93935799E-04 -0.11209257E-03
 -0.12794092E-03 -0.14150495E-03 -0.15282647E-03 -0.16196339E-03 -0.16898804E-03
 -0.17398558E-03 -0.17705235E-03 -0.17829430E-03 -0.17782547E-03 -0.17576648E-03
 -0.17224307E-03 -0.16738478E-03 -0.16132357E-03 -0.15419264E-03 -0.14612526E-03
 -0.13725366E-03 -0.12770804E-03 -0.11761569E-03 -0.10710010E-03 -0.96280264E-04
 -0.85269973E-04 -0.74177269E-04 -0.63103931E-04 -0.52145064E-04 -0.41388763E-04
 -0.30915845E-04 -0.20799669E-04 -0.11106008E-04 -0.18930047E-05  0.67888258E-05
  0.14896524E-04  0.22394567E-04  0.29254693E-04  0.35455687E-04  0.40983121E-04
  0.45829056E-04  0.49991719E-04  0.53475145E-04  0.56288793E-04  0.58447157E-04
  0.59969342E-04  0.60878647E-04  0.61202124E-04  0.60970148E-04  0.60215979E-04
  0.58975323E-04  0.57285911E-04  0.55187074E-04  0.52719340E-04  0.49924036E-04
  0.46842913E-04  0.43517786E-04  0.39990193E-04  0.36301076E-04  0.32490486E-04
  0.28597308E-04  0.24659010E-04  0.20711423E-04  0.16788539E-04  0.12922335E-04
  0.91426252E-05  0.54769379E-05  0.19504127E-05 -0.14142737E-05 -0.45969611E-05
 -0.75800356E-05 -0.10348439E-04 -0.12889658E-04 -0.15193691E-04 -0.17253001E-04
 -0.19062453E-04 -0.20619225E-04 -0.21922724E-04 -0.22974467E-04 -0.23777971E-04
 -0.24338623E-04 -0.24663541E-04 -0.24761432E-04 -0.24642444E-04 -0.24318016E-04
 -0.23800717E-04 -0.23104096E-04 -0.22242522E-04 -0.21231031E-04 -0.20085172E-04
 -0.18820857E-04 -0.17454218E-04 -0.16001466E-04 -0.14478756E-04 -0.12902064E-04
 -0.11287060E-04 -0.96490045E-05 -0.80026409E-05 -0.63621015E-05 -0.47408234E-05
 -0.31514723E-05 -0.16058761E-05 -0.11496882E-06  0.13112567E-05  0.26637863E-05
  0.39346123E-05  0.51167528E-05  0.62042611E-05  0.71922280E-05  0.80767741E-05
  0.88550361E-05  0.95251442E-05  0.10086194E-04  0.10538211E-04  0.10882110E-04
  0.11119649E-04  0.11253379E-04  0.11286589E-04  0.11223248E-04  0.11067944E-04
  0.10825821E-04  0.10502514E-04  0.10104083E-04  0.96369472E-05  0.91078164E-05
  0.85236283E-05  0.78914808E-05  0.72185698E-05  0.65121269E-05  0.57793604E-05
  0.50273982E-05  0.42632345E-05  0.34936786E-05  0.27253087E-05  0.19644278E-05
  0.12170251E-05  0.48874014E-06 -0.21516780E-06 -0.88984700E-06 -0.15308757E-05
 -0.21342802E-05 -0.26965494E-05 -0.32146442E-05 -0.36860033E-05 -0.41085451E-05
 -0.44806656E-05 -0.48012324E-05 -0.50695758E-05 -0.52854761E-05 -0.54491476E-05
 -0.55612210E-05 -0.56227216E-05 -0.56350466E-05 -0.55999395E-05 -0.55194629E-05
 -0.53959702E-05 -0.52320758E-05 -0.50306241E-05 -0.47946581E-05 -0.45273884E-05
 -0.42321601E-05 -0.39124220E-05 -0.35716950E-05 -0.32135407E-05 -0.28415322E-05
 -0.24592246E-05 -0.20701275E-05 -0.16776784E-05 -0.12852179E-05 -0.89596656E-06
 -0.51300339E-06 -0.13924635E-06  0.22256520E-06  0.56988599E-06  0.90037836E-06
  0.12119234E-05  0.15026305E-05  0.17708438E-05  0.20151479E-05  0.22343700E-05
  0.24275814E-05  0.25940960E-05  0.27334675E-05  0.28454848E-05  0.29301651E-05
  0.29877464E-05  0.30186777E-05  0.30236083E-05  0.30033756E-05  0.29589923E-05
  0.28916320E-05  0.28026146E-05  0.26933908E-05  0.25655260E-05  0.24206839E-05
  0.22606100E-05  0.20871151E-05  0.19020583E-05  0.17073305E-05  0.15048389E-05
  0.12964905E-05  0.10841770E-05  0.86976047E-06  0.65505935E-06  0.44183517E-06
  0.23178045E-06  0.26507452E-07 -0.17246218E-06 -0.36370661E-06 -0.54591195E-06
 -0.71787930E-06 -0.87853065E-06 -0.10269136E-05 -0.11622050E-05 -0.12837135E-05
 -0.13908806E-05 -0.14832813E-05 -0.15606229E-05 -0.16227437E-05 -0.16696096E-05
 -0.17013107E-05 -0.17180566E-05 -0.17201713E-05 -0.17080865E-05 -0.16823355E-05
 -0.16435451E-05 -0.15924283E-05 -0.15297756E-05 -0.14564465E-05 -0.13733605E-05
 -0.12814878E-05 -0.11818401E-05 -0.10754614E-05 -0.96341847E-06 -0.84679162E-06
 -0.72666592E-06 -0.60412218E-06 -0.48022851E-06 -0.35603216E-06 -0.23255180E-06
 -0.11077019E-06  0.83725583E-08  0.12398527E-06  0.23523135E-06  0.34133389E-06
  0.44158007E-06  0.53532506E-06  0.62199511E-06  0.70109008E-06  0.77218534E-06
  0.83493291E-06  0.88906208E-06  0.93437931E-06  0.97076758E-06  0.99818510E-06
  0.10166635E-05  0.10263056E-05  0.10272822E-05  0.10198294E-05  0.10042442E-05
  0.98088080E-06  0.95014616E-06  0.91249510E-06  0.86842540E-06  0.81847264E-06
  0.76320487E-06  0.70321713E-06  0.63912597E-06  0.57156395E-06  0.50117413E-06
  0.42860463E-06  0.35450335E-06  0.27951275E-06  0.20426495E-06  0.12937689E-06
  0.55445847E-07 -0.16954777E-07 -0.87279419E-07 -0.15501394E-06 -0.21967888E-06
 -0.28083236E-06 -0.33807258E-06 -0.39103998E-06 -0.43941894E-06 -0.48293916E-06
 -0.52137660E-06 -0.55455403E-06 -0.58234122E-06 -0.60465469E-06 -0.62145721E-06
 -0.63275683E-06 -0.63860562E-06 -0.63909813E-06 -0.63436952E-06 -0.62459338E-06
 -0.60997940E-06 -0.59077070E-06 -0.56724105E-06 -0.53969192E-06 -0.50844930E-06
 -0.47386049E-06 -0.43629079E-06 -0.39612012E-06 -0.35373959E-06 -0.30954812E-06
 -0.26394903E-06 -0.21734673E-06 -0.17014347E-06 -0.12273614E-06 -0.75513287E-07
 -0.28852206E-07  0.16883802E-07  0.61347962E-07  0.10421238E-06  0.14517020E-06
  0.18393752E-06  0.22025508E-06  0.25388972E-06  0.28463562E-06  0.31231523E-06
  0.33678000E-06  0.35791088E-06  0.37561848E-06  0.38984314E-06  0.40055459E-06
  0.40775155E-06  0.41146099E-06  0.41173723E-06  0.40866084E-06  0.40233739E-06
  0.39289597E-06  0.38048759E-06  0.36528349E-06  0.34747323E-06  0.32726277E-06
  0.30487242E-06  0.28053476E-06  0.25449246E-06  0.22699613E-06  0.19830211E-06
  0.16867030E-06  0.13836200E-06  0.10763779E-06  0.76755463E-07  0.45968040E-07
  0.15521858E-07 -0.14345238E-07 -0.43405599E-07 -0.71443345E-07 -0.98255817E-07
 -0.12365489E-06 -0.14746813E-06 -0.16953982E-06 -0.18973181E-06 -0.20792419E-06
 -0.22401588E-06 -0.23792497E-06 -0.24958892E-06 -0.25896465E-06 -0.26602844E-06
 -0.27077563E-06 -0.27322027E-06 -0.27339459E-06 -0.27134829E-06 -0.26714777E-06
 -0.26087522E-06 -0.25262762E-06 -0.24251562E-06 -0.23066236E-06 -0.21720218E-06
 -0.20227935E-06 -0.18604663E-06 -0.16866391E-06 -0.15029679E-06 -0.13111506E-06
 -0.11129132E-06 -0.90999519E-07 -0.70413515E-07 -0.49705721E-07 -0.29045747E-07
 -0.85991038E-08  0.11474021E-07  0.31019930E-07  0.49892497E-07  0.67954174E-07
  0.85076898E-07  0.10114291E-06  0.11604547E-06  0.12968946E-06  0.14199193E-06
  0.15288245E-06  0.16230344E-06  0.17021032E-06  0.17657162E-06  0.18136894E-06
  0.18459680E-06  0.18626243E-06  0.18638545E-06  0.18499742E-06  0.18214135E-06
  0.17787112E-06  0.17225082E-06  0.16535401E-06  0.15726296E-06  0.14806777E-06
  0.13786552E-06  0.12675934E-06  0.11485747E-06  0.10227225E-06  0.89119207E-07
  0.75515991E-07  0.61581446E-07  0.47434611E-07  0.33193777E-07  0.18975551E-07
  0.48939664E-08 -0.89403807E-08 -0.22421139E-07 -0.35446966E-07 -0.47922235E-07
 -0.59757678E-07 -0.70870975E-07 -0.81187263E-07 -0.90639588E-07 -0.99169274E-07
 -0.10672623E-06 -0.11326916E-06 -0.11876575E-06 -0.12319271E-06 -0.12653578E-06
 -0.12878969E-06 -0.12995800E-06 -0.13005291E-06 -0.12909497E-06 -0.12711276E-06
 -0.12414250E-06 -0.12022764E-06 -0.11541830E-06 -0.10977080E-06 -0.10334708E-06
 -0.96214059E-07 -0.88443037E-07 -0.80109028E-07 -0.71290087E-07 -0.62066631E-07
 -0.52520748E-07 -0.42735511E-07 -0.32794295E-07 -0.22780104E-07 -0.12774918E-07
 -0.28590583E-08  0.68894227E-08  0.16395320E-07  0.25586823E-07  0.34396019E-07
  0.42759365E-07  0.50618108E-07  0.57918665E-07  0.64612948E-07  0.70658644E-07
  0.76019446E-07  0.80665223E-07  0.84572147E-07  0.87722761E-07  0.90105999E-07
  0.91717153E-07  0.92557791E-07  0.92635623E-07  0.91964328E-07  0.90563330E-07
  0.88457535E-07  0.85677031E-07  0.82256749E-07  0.78236095E-07  0.73658550E-07
  0.68571250E-07  0.63024538E-07  0.57071507E-07  0.50767520E-07  0.44169731E-07
  0.37336592E-07  0.30327365E-07  0.23201631E-07  0.16018812E-07  0.88376985E-08
  0.17159887E-08 -0.52901476E-08 -0.12126492E-07 -0.18741175E-07 -0.25085045E-07
 -0.31112012E-07 -0.36779364E-07 -0.42048040E-07 -0.46882879E-07 -0.51252831E-07
 -0.55131130E-07 -0.58495428E-07 -0.61327899E-07 -0.63615294E-07 -0.65348969E-07
 -0.66524870E-07 -0.67143482E-07 -0.67209747E-07 -0.66732943E-07 -0.65726531E-07
 -0.64207978E-07 -0.62198541E-07 -0.59723035E-07 -0.56809568E-07 -0.53489260E-07
 -0.49795942E-07 -0.45765836E-07 -0.41437228E-07 -0.36850122E-07 -0.32045889E-07
 -0.27066921E-07 -0.21956265E-07 -0.16757273E-07 -0.11513252E-07 -0.62671145E-08
 -0.10610459E-08  0.40638203E-08  0.90677130E-08  0.13912517E-07  0.18562049E-07
  0.22982313E-07  0.27141734E-07  0.31011368E-07  0.34565089E-07  0.37779747E-07
  0.40635306E-07  0.43114945E-07  0.45205143E-07  0.46895725E-07  0.48179891E-07
  0.49054213E-07  0.49518599E-07  0.49576244E-07  0.49233545E-07  0.48499999E-07
  0.47388071E-07  0.45913045E-07  0.44092859E-07  0.41947911E-07  0.39500859E-07
  0.36776400E-07  0.33801041E-07  0.30602855E-07  0.27211230E-07  0.23656617E-07
  0.19970264E-07  0.16183954E-07  0.12329747E-07  0.84397145E-08  0.45456839E-08
  0.67899089E-09 -0.31297646E-08 -0.68509499E-08 -0.10456121E-07 -0.13918228E-07
 -0.17211812E-07 -0.20313178E-07 -0.23200558E-07 -0.25854254E-07 -0.28256756E-07
 -0.30392855E-07 -0.32249719E-07 -0.33816961E-07 -0.35086680E-07 -0.36053487E-07
 -0.36714504E-07 -0.37069348E-07 -0.37120094E-07 -0.36871216E-07 -0.36329519E-07
 -0.35504041E-07 -0.34405945E-07 -0.33048402E-07 -0.31446447E-07 -0.29616833E-07
 -0.27577869E-07 -0.25349246E-07 -0.22951865E-07 -0.20407641E-07 -0.17739321E-07
 -0.14970284E-07 -0.12124346E-07 -0.92255621E-08 -0.62980326E-08 -0.33657069E-08
 -0.45219708E-09  0.24194066E-08  0.52267114E-08  0.79481898E-08  0.10563338E-07
  0.13052825E-07  0.15398624E-07  0.17584144E-07  0.19594331E-07  0.21415771E-07
  0.23036767E-07  0.24447411E-07  0.25639629E-07  0.26607223E-07  0.27345886E-07
  0.27853212E-07  0.28128684E-07  0.28173648E-07  0.27991275E-07  0.27586507E-07
  0.26965991E-07  0.26138000E-07  0.25112338E-07  0.23900247E-07  0.22514287E-07
  0.20968219E-07  0.19276877E-07  0.17456032E-07  0.15522254E-07  0.13492765E-07
  0.11385294E-07  0.92179263E-08  0.70089528E-08  0.47767234E-08  0.25394978E-08
  0.31530158E-09 -0.18782143E-08 -0.40239090E-08 -0.61052806E-08 -0.81065888E-08
 -0.10012969E-07 -0.11810538E-07 -0.13486489E-07 -0.15029181E-07 -0.16428212E-07
 -0.17674482E-07 -0.18760252E-07 -0.19679178E-07 -0.20426349E-07 -0.20998299E-07
 -0.21393015E-07 -0.21609935E-07 -0.21649925E-07 -0.21515257E-07 -0.21209567E-07
 -0.20737805E-07 -0.20106180E-07 -0.19322088E-07 -0.18394040E-07 -0.17331573E-07
 -0.16145161E-07 -0.14846120E-07 -0.13446501E-07 -0.11958986E-07 -0.10396778E-07
 -0.87734859E-08 -0.71030105E-08 -0.53994310E-08 -0.36768879E-08 -0.19494705E-08
 -0.23110451E-09  0.14645567E-08  0.31242371E-08  0.47351386E-08  0.62850368E-08
  0.77623696E-08  0.91563211E-08  0.10456897E-07  0.11654991E-07  0.12742448E-07
  0.13712113E-07  0.14557878E-07  0.15274708E-07  0.15858676E-07  0.16306970E-07
  0.16617906E-07  0.16790923E-07  0.16826570E-07  0.16726489E-07  0.16493384E-07
  0.16130988E-07  0.15644013E-07  0.15038106E-07  0.14319783E-07  0.13496372E-07
  0.12575939E-07  0.11567212E-07  0.10479507E-07  0.93226413E-08  0.81068503E-08
  0.68426986E-08  0.55409915E-08  0.42126860E-08  0.28688004E-08  0.15203256E-08
  0.17813832E-09 -0.11470851E-08 -0.24449505E-08 -0.37054255E-08 -0.49189144E-08
 -0.60763287E-08 -0.71691533E-08 -0.81895059E-08 -0.91301921E-08 -0.99847527E-08
 -0.10747506E-07 -0.11413582E-07 -0.11978950E-07 -0.12440442E-07 -0.12795761E-07
 -0.13043493E-07 -0.13183104E-07 -0.13214931E-07 -0.13140170E-07 -0.12960854E-07
 -0.12679825E-07 -0.12300700E-07 -0.11827835E-07 -0.11266275E-07 -0.10621708E-07
 -0.99004107E-08 -0.91091896E-08 -0.82553198E-08 -0.73464810E-08 -0.63906905E-08
 -0.53962345E-08 -0.43715986E-08 -0.33253975E-08 -0.22663041E-08 -0.12029796E-08
 -0.14400476E-09  0.90218801E-09  0.19273798E-08  0.29236279E-08  0.38833260E-08
  0.47992602E-08  0.56646614E-08  0.64732539E-08  0.72192986E-08  0.78976322E-08
  0.85037007E-08  0.90335877E-08  0.94840376E-08  0.98524729E-08  0.10137006E-07
  0.10336445E-07  0.10450294E-07  0.10478749E-07  0.10422688E-07  0.10283651E-07
  0.10063824E-07  0.97660116E-08  0.93936047E-08  0.89505486E-08  0.84413026E-08
  0.78707985E-08  0.72443948E-08  0.65678288E-08  0.58471655E-08  0.50887449E-08
  0.42991285E-08  0.34850433E-08  0.26533264E-08  0.18108689E-08  0.96455990E-09
  0.12123197E-09 -0.71239309E-09 -0.15297564E-08 -0.23245122E-08 -0.30905762E-08
 -0.38221703E-08 -0.45138656E-08 -0.51606206E-08 -0.57578172E-08 -0.63012917E-08
 -0.67873630E-08 -0.72128551E-08 -0.75751171E-08 -0.78720368E-08 -0.81020515E-08
 -0.82641535E-08 -0.83578908E-08 -0.83833642E-08 -0.83412195E-08 -0.82326354E-08
 -0.80593077E-08 -0.78234289E-08 -0.75276650E-08 -0.71751279E-08 -0.67693454E-08
 -0.63142276E-08 -0.58140309E-08 -0.52733200E-08 -0.46969274E-08 -0.40899115E-08
 -0.34575134E-08 -0.28051130E-08 -0.21381841E-08 -0.14622496E-08 -0.78283661E-09
 -0.10543261E-09  0.56455823E-09  0.12218571E-08  0.18613510E-08  0.24781320E-08
  0.30675335E-08  0.36251648E-08  0.41469427E-08  0.46291205E-08  0.50683137E-08
  0.54615228E-08  0.58061526E-08  0.61000278E-08  0.63414057E-08  0.65289842E-08
  0.66619079E-08  0.67397686E-08  0.67626037E-08  0.67308905E-08  0.66455368E-08
  0.65078689E-08  0.63196157E-08  0.60828900E-08  0.58001673E-08  0.54742617E-08
  0.51082991E-08  0.47056885E-08  0.42700918E-08  0.38053910E-08  0.33156552E-08
  0.28051052E-08  0.22780784E-08  0.17389927E-08  0.11923102E-08  0.64250112E-09
 kinetic energy density (partial)
  0.18384394E+03  0.18376201E+03  0.18351646E+03  0.18310789E+03  0.18253736E+03
  0.18180632E+03  0.18091663E+03  0.17987055E+03  0.17867073E+03  0.17732017E+03
  0.17582227E+03  0.17418076E+03  0.17239971E+03  0.17048349E+03  0.16843679E+03
  0.16626456E+03  0.16397203E+03  0.16156466E+03  0.15904812E+03  0.15642828E+03
  0.15371119E+03  0.15090303E+03  0.14801012E+03  0.14503889E+03  0.14199584E+03
  0.13888752E+03  0.13572054E+03  0.13250150E+03  0.12923699E+03  0.12593359E+03
  0.12259780E+03  0.11923607E+03  0.11585476E+03  0.11246010E+03  0.10905823E+03
  0.10565512E+03  0.10225658E+03  0.98868274E+02  0.95495664E+02  0.92144018E+02
  0.88818401E+02  0.85523660E+02  0.82264415E+02  0.79045059E+02  0.75869741E+02
  0.72742371E+02  0.69666609E+02  0.66645866E+02  0.63683300E+02  0.60781819E+02
  0.57944074E+02  0.55172467E+02  0.52469150E+02  0.49836027E+02  0.47274761E+02
  0.44786772E+02  0.42373251E+02  0.40035156E+02  0.37773227E+02  0.35587985E+02
  0.33479747E+02  0.31448626E+02  0.29494547E+02  0.27617247E+02  0.25816292E+02
  0.24091081E+02  0.22440854E+02  0.20864707E+02  0.19361596E+02  0.17930350E+02
  0.16569678E+02  0.15278178E+02  0.14054352E+02  0.12896608E+02  0.11803272E+02
  0.10772601E+02  0.98027845E+01  0.88919596E+01  0.80382158E+01  0.72396045E+01
  0.64941467E+01  0.57998405E+01  0.51546685E+01  0.45566050E+01  0.40036223E+01
  0.34936974E+01  0.30248177E+01  0.25949869E+01  0.22022301E+01  0.18445989E+01
  0.15201759E+01  0.12270789E+01  0.96346484E+00  0.72753330E+00  0.51752969E+00
  0.33174808E+00  0.16853376E+00  0.26285369E-01 -0.96543199E-01 -0.20144122E+00
 -0.28983988E+00 -0.36311128E+00 -0.42256768E+00 -0.46946112E+00 -0.50498312E+00
 -0.53026475E+00 -0.54637685E+00 -0.55433050E+00 -0.55507766E+00 -0.54951197E+00
 -0.53846979E+00 -0.52273130E+00 -0.50302181E+00 -0.48001318E+00 -0.45432533E+00
 -0.42652788E+00 -0.39714188E+00 -0.36664157E+00 -0.33545629E+00 -0.30397235E+00
 -0.27253499E+00 -0.24145040E+00 -0.21098768E+00 -0.18138092E+00 -0.15283115E+00
 -0.12550841E+00 -0.99553742E-01 -0.75081145E-01 -0.52179559E-01 -0.30914760E-01
 -0.11331243E-01  0.65459559E-02  0.22709481E-01  0.37167941E-01  0.49944245E-01
  0.61074014E-01  0.70604051E-01  0.78590881E-01  0.85099362E-01  0.90201372E-01
  0.93974570E-01  0.96501223E-01  0.97867120E-01  0.98160552E-01  0.97471371E-01
  0.95890122E-01  0.93507242E-01  0.90412344E-01  0.86693555E-01  0.82436935E-01
  0.77725951E-01  0.72641028E-01  0.67259146E-01  0.61653512E-01  0.55893274E-01
  0.50043299E-01  0.44163996E-01  0.38311189E-01  0.32536036E-01  0.26884984E-01
  0.21399770E-01  0.16117454E-01  0.11070486E-01  0.62867983E-02  0.17899317E-02
 -0.24008198E-02 -0.62702413E-02 -0.98070117E-02 -0.13003502E-01 -0.15855564E-01
 -0.18362299E-01 -0.20525835E-01 -0.22351078E-01 -0.23845476E-01 -0.25018775E-01
 -0.25882771E-01 -0.26451068E-01 -0.26738844E-01 -0.26762612E-01 -0.26539993E-01
 -0.26089500E-01 -0.25430319E-01 -0.24582113E-01 -0.23564825E-01 -0.22398501E-01
 -0.21103118E-01 -0.19698427E-01 -0.18203805E-01 -0.16638129E-01 -0.15019647E-01
 -0.13365879E-01 -0.11693516E-01 -0.10018343E-01 -0.83551644E-02 -0.67177511E-02
 -0.51187915E-02 -0.35698578E-02 -0.20813828E-02 -0.66264586E-03  0.67823031E-03
  0.19342740E-02  0.30996505E-02  0.41696393E-02  0.51406052E-02  0.60099618E-02
  0.67761292E-02  0.74384868E-02  0.79973209E-02  0.84537688E-02  0.88097597E-02
  0.90679518E-02  0.92316692E-02  0.93048357E-02  0.92919084E-02  0.91978112E-02
  0.90278683E-02  0.87877379E-02  0.84833477E-02  0.81208318E-02  0.77064696E-02
  0.72466263E-02  0.67476972E-02  0.62160540E-02  0.56579947E-02  0.50796963E-02
  0.44871720E-02  0.38862308E-02  0.32824420E-02  0.26811027E-02  0.20872097E-02
  0.15054350E-02  0.94010517E-03  0.39518459E-03 -0.12573759E-03 -0.61945689E-03
 -0.10831594E-02 -0.15144243E-02 -0.19112232E-02 -0.22719164E-02 -0.25952464E-02
 -0.28803284E-02 -0.31266389E-02 -0.33340012E-02 -0.35025703E-02 -0.36328141E-02
 -0.37254948E-02 -0.37816478E-02 -0.38025600E-02 -0.37897470E-02 -0.37449297E-02
 -0.36700105E-02 -0.35670490E-02 -0.34382380E-02 -0.32858790E-02 -0.31123589E-02
 -0.29201264E-02 -0.27116692E-02 -0.24894926E-02 -0.22560977E-02 -0.20139619E-02
 -0.17655202E-02 -0.15131470E-02 -0.12591401E-02 -0.10057056E-02 -0.75494442E-03
 -0.50884008E-03 -0.26924808E-03 -0.37886755E-04  0.18367035E-03  0.39400067E-03
  0.59183727E-03  0.77607213E-03  0.94575798E-03  0.11001088E-02  0.12384990E-02
  0.13604616E-02  0.14656845E-02  0.15540069E-02  0.16254135E-02  0.16800287E-02
  0.17181091E-02  0.17400362E-02  0.17463076E-02  0.17375283E-02  0.17144012E-02
  0.16777169E-02  0.16283444E-02  0.15672201E-02  0.14953377E-02  0.14137378E-02
  0.13234976E-02  0.12257206E-02  0.11215268E-02  0.10120426E-02  0.89839213E-03
  0.78168773E-03  0.66302170E-03  0.54345832E-03  0.42402638E-03  0.30571238E-03
  0.18945425E-03  0.76135777E-04 -0.33418365E-04 -0.13844687E-03 -0.23825542E-03
 -0.33221962E-03 -0.41978729E-03 -0.50048002E-03 -0.57389417E-03 -0.63970118E-03
 -0.69764729E-03 -0.74755272E-03 -0.78931018E-03 -0.82288303E-03 -0.84830279E-03
 -0.86566634E-03 -0.87513258E-03 -0.87691887E-03 -0.87129700E-03 -0.85858901E-03
 -0.83916266E-03 -0.81342679E-03 -0.78182647E-03 -0.74483811E-03 -0.70296442E-03
 -0.65672944E-03 -0.60667351E-03 -0.55334833E-03 -0.49731212E-03 -0.43912490E-03
 -0.37934390E-03 -0.31851920E-03 -0.25718958E-03 -0.19587858E-03 -0.13509084E-03
 -0.75308738E-04 -0.16989311E-04  0.39438525E-04  0.93576414E-04  0.14505867E-03
  0.19355408E-03  0.23876731E-03  0.28044008E-03  0.31835185E-03  0.35232037E-03
  0.38220174E-03  0.40789027E-03  0.42931799E-03  0.44645390E-03  0.45930294E-03
  0.46790472E-03  0.47233202E-03  0.47268908E-03  0.46910966E-03  0.46175501E-03
  0.45081161E-03  0.43648884E-03  0.41901653E-03  0.39864240E-03  0.37562951E-03
  0.35025363E-03  0.32280059E-03  0.29356364E-03  0.26284090E-03  0.23093274E-03
  0.19813935E-03  0.16475831E-03  0.13108229E-03  0.97396872E-04  0.63978462E-04
  0.31092399E-04 -0.10088348E-05 -0.32087220E-04 -0.61920648E-04 -0.90304190E-04
 -0.11705120E-03 -0.14199420E-03 -0.16498568E-03 -0.18589858E-03 -0.20462668E-03
 -0.22108482E-03 -0.23520892E-03 -0.24695578E-03 -0.25630284E-03 -0.26324769E-03
 -0.26780744E-03 -0.27001801E-03 -0.26993325E-03 -0.26762394E-03 -0.26317673E-03
 -0.25669291E-03 -0.24828720E-03 -0.23808640E-03 -0.22622800E-03 -0.21285873E-03
 -0.19813316E-03 -0.18221217E-03 -0.16526150E-03 -0.14745026E-03 -0.12894947E-03
 -0.10993064E-03 -0.90564378E-04 -0.71019054E-04 -0.51459500E-04 -0.32045804E-04
 -0.12932164E-04  0.57341723E-05  0.23813890E-04  0.41176486E-04  0.57701062E-04
  0.73277011E-04  0.87804605E-04  0.10119548E-03  0.11337302E-03  0.12427261E-03
  0.13384185E-03  0.14204058E-03  0.14884088E-03  0.15422693E-03  0.15819479E-03
  0.16075211E-03  0.16191772E-03  0.16172118E-03  0.16020222E-03  0.15741013E-03
  0.15340316E-03  0.14824770E-03  0.14201759E-03  0.13479331E-03  0.12666115E-03
  0.11771231E-03  0.10804211E-03  0.97749056E-04  0.86933981E-04  0.75699171E-04
  0.64147507E-04  0.52381620E-04  0.40503076E-04  0.28611594E-04  0.16804293E-04
  0.51749876E-05 -0.61864785E-05 -0.17194842E-04 -0.27769981E-04 -0.37837421E-04
 -0.47328775E-04 -0.56182136E-04 -0.64342395E-04 -0.71761500E-04 -0.78398660E-04
 -0.84220474E-04 -0.89201005E-04 -0.93321789E-04 -0.96571789E-04 -0.98947286E-04
 -0.10045172E-03 -0.10109546E-03 -0.10089558E-03 -0.99875482E-04 -0.98064615E-04
 -0.95498031E-04 -0.92215982E-04 -0.88263457E-04 -0.83689700E-04 -0.78547707E-04
 -0.72893704E-04 -0.66786615E-04 -0.60287517E-04 -0.53459100E-04 -0.46365124E-04
 -0.39069877E-04 -0.31637647E-04 -0.24132211E-04 -0.16616333E-04 -0.91512875E-05
 -0.17964058E-05  0.53913502E-05  0.12357786E-04  0.19051838E-04  0.25425908E-04
  0.31436155E-04  0.37042757E-04  0.42210125E-04  0.46907091E-04  0.51107042E-04
  0.54788028E-04  0.57932816E-04  0.60528919E-04  0.62568578E-04  0.64048707E-04
  0.64970806E-04  0.65340838E-04  0.65169073E-04  0.64469899E-04  0.63261613E-04
  0.61566172E-04  0.59408939E-04  0.56818389E-04  0.53825813E-04  0.50464997E-04
  0.46771892E-04  0.42784274E-04  0.38541403E-04  0.34083664E-04  0.29452226E-04
  0.24688688E-04  0.19834739E-04  0.14931819E-04  0.10020794E-04  0.51416450E-05
  0.33316229E-06 -0.43673324E-05 -0.89242528E-05 -0.13303993E-04 -0.17475150E-04
 -0.21408725E-04 -0.25078299E-04 -0.28460189E-04 -0.31533569E-04 -0.34280575E-04
 -0.36686381E-04 -0.38739244E-04 -0.40430533E-04 -0.41754725E-04 -0.42709377E-04
 -0.43295079E-04 -0.43515379E-04 -0.43376686E-04 -0.42888159E-04 -0.42061567E-04
 -0.40911137E-04 -0.39453389E-04 -0.37706946E-04 -0.35692344E-04 -0.33431820E-04
 -0.30949100E-04 -0.28269173E-04 -0.25418063E-04 -0.22422601E-04 -0.19310189E-04
 -0.16108567E-04 -0.12845587E-04 -0.95489860E-05 -0.62461650E-05 -0.29639784E-05
  0.27147015E-06  0.34350196E-05  0.65026332E-05  0.94515664E-05  0.12260521E-04
  0.14909784E-04  0.17381354E-04  0.19659043E-04  0.21728572E-04  0.23577645E-04
  0.25195999E-04  0.26575450E-04  0.27709908E-04  0.28595386E-04  0.29229984E-04
  0.29613862E-04  0.29749194E-04  0.29640108E-04  0.29292612E-04  0.28714505E-04
  0.27915282E-04  0.26906014E-04  0.25699232E-04  0.24308797E-04  0.22749757E-04
  0.21038204E-04  0.19191124E-04  0.17226241E-04  0.15161860E-04  0.13016710E-04
  0.10809784E-04  0.85601795E-05  0.62869475E-05  0.40089378E-05  0.17446530E-05
 -0.48789205E-06 -0.26713054E-05 -0.47889439E-05 -0.68250317E-05 -0.87647686E-05
 -0.10594429E-04 -0.12301450E-04 -0.13874509E-04 -0.15303588E-04 -0.16580029E-04
 -0.17696575E-04 -0.18647401E-04 -0.19428131E-04 -0.20035843E-04 -0.20469067E-04
 -0.20727764E-04 -0.20813300E-04 -0.20728407E-04 -0.20477131E-04 -0.20064780E-04
 -0.19497848E-04 -0.18783949E-04 -0.17931725E-04 -0.16950764E-04 -0.15851498E-04
 -0.14645110E-04 -0.13343424E-04 -0.11958799E-04 -0.10504021E-04 -0.89921937E-05
 -0.74366226E-05 -0.58507085E-05 -0.42478373E-05 -0.26412725E-05 -0.10440520E-05
  0.53111212E-06  0.20719294E-05  0.35666209E-05  0.50040041E-05  0.63735706E-05
  0.76655579E-05  0.88710130E-05  0.99818485E-05  0.10990891E-04  0.11891923E-04
  0.12679710E-04  0.13350029E-04  0.13899680E-04  0.14326493E-04  0.14629326E-04
  0.14808057E-04  0.14863561E-04  0.14797689E-04  0.14613232E-04  0.14313883E-04
  0.13904189E-04  0.13389499E-04  0.12775909E-04  0.12070193E-04  0.11279744E-04
  0.10412497E-04  0.94768598E-05  0.84816330E-05  0.74359358E-05  0.63491253E-05
  0.52307177E-05  0.40903090E-05  0.29374968E-05  0.17818033E-05  0.63260070E-06
 -0.50096148E-06 -0.16100254E-05 -0.26860904E-05 -0.37210750E-05 -0.47073736E-05
 -0.56379091E-05 -0.65061799E-05 -0.73063014E-05 -0.80330425E-05 -0.86818553E-05
 -0.92488994E-05 -0.97310601E-05 -0.10125960E-04 -0.10431966E-04 -0.10648188E-04
 -0.10774472E-04 -0.10811390E-04 -0.10760223E-04 -0.10622935E-04 -0.10402149E-04
 -0.10101112E-04 -0.97236588E-05 -0.92741698E-05 -0.87575285E-05 -0.81790718E-05
 -0.75445402E-05 -0.68600240E-05 -0.61319094E-05 -0.53668213E-05 -0.45715666E-05
 -0.37530765E-05 -0.29183487E-05 -0.20743901E-05 -0.12281608E-05 -0.38651930E-06
  0.44383122E-06  0.12563934E-05  0.20449244E-05  0.28034814E-05  0.35264642E-05
  0.42086540E-05  0.48452488E-05  0.54318947E-05  0.59647131E-05  0.64403237E-05
  0.68558631E-05  0.72089987E-05  0.74979389E-05  0.77214377E-05  0.78787960E-05
  0.79698575E-05  0.79950011E-05  0.79551287E-05  0.78516494E-05  0.76864592E-05
  0.74619185E-05  0.71808245E-05  0.68463822E-05  0.64621718E-05  0.60321132E-05
  0.55604299E-05  0.50516095E-05  0.45103634E-05  0.39415857E-05  0.33503108E-05
  0.27416706E-05  0.21208523E-05  0.14930553E-05  0.86344995E-06  0.23713621E-06
 -0.38089575E-06 -0.98580386E-06 -0.15729305E-05 -0.21378366E-05 -0.26763339E-05
 -0.31845142E-05 -0.36587763E-05 -0.40958494E-05 -0.44928147E-05 -0.48471221E-05
 -0.51566056E-05 -0.54194937E-05 -0.56344179E-05 -0.58004165E-05 -0.59169362E-05
 -0.59838299E-05 -0.60013511E-05 -0.59701460E-05 -0.58912413E-05 -0.57660308E-05
 -0.55962575E-05 -0.53839948E-05 -0.51316241E-05 -0.48418113E-05 -0.45174805E-05
 -0.41617868E-05 -0.37780876E-05 -0.33699117E-05 -0.29409294E-05 -0.24949200E-05
 -0.20357404E-05 -0.15672926E-05 -0.10934921E-05 -0.61823620E-06 -0.14537283E-06
  0.32132906E-06  0.77820874E-06  0.12217412E-05  0.16485633E-05  0.20554983E-05
  0.24395781E-05  0.27980640E-05  0.31284653E-05  0.34285549E-05  0.36963832E-05
  0.39302900E-05  0.41289126E-05  0.42911923E-05  0.44163787E-05  0.45040305E-05
  0.45540143E-05  0.45665013E-05  0.45419610E-05  0.44811529E-05  0.43851162E-05
  0.42551572E-05  0.40928344E-05  0.38999428E-05  0.36784954E-05  0.34307042E-05
  0.31589592E-05  0.28658068E-05  0.25539269E-05  0.22261094E-05  0.18852304E-05
  0.15342277E-05  0.11760766E-05  0.81376500E-06  0.45026995E-06  0.88533475E-07
 -0.26856022E-06 -0.61820705E-06 -0.95770432E-06 -0.12844708E-05 -0.15960658E-05
 -0.18902062E-05 -0.21647829E-05 -0.24178748E-05 -0.26477615E-05 -0.28529343E-05
 -0.30321048E-05 -0.31842122E-05 -0.33084285E-05 -0.34041618E-05 -0.34710572E-05
 -0.35089964E-05 -0.35180955E-05 -0.34987001E-05 -0.34513795E-05 -0.33769188E-05
 -0.32763098E-05 -0.31507394E-05 -0.30015780E-05 -0.28303652E-05 -0.26387956E-05
 -0.24287027E-05 -0.22020421E-05 -0.19608746E-05 -0.17073475E-05 -0.14436767E-05
 -0.11721277E-05 -0.89499680E-06 -0.61459239E-06 -0.33321616E-06 -0.53144826E-07
  0.22338776E-06  0.49420789E-06  0.75721853E-06  0.10104150E-05  0.12518999E-05
  0.14798964E-05  0.16927611E-05  0.18889953E-05  0.20672547E-05  0.22263582E-05
  0.23652951E-05  0.24832305E-05  0.25795099E-05  0.26536616E-05  0.27053981E-05
  0.27346159E-05  0.27413934E-05  0.27259881E-05  0.26888319E-05  0.26305252E-05
  0.25518297E-05  0.24536603E-05  0.23370754E-05  0.22032665E-05  0.20535469E-05
  0.18893393E-05  0.17121632E-05  0.15236213E-05  0.13253853E-05  0.11191817E-05
  0.90677748E-06  0.68996497E-06  0.47054745E-06  0.25032444E-06  0.31077374E-07
 -0.18544442E-06 -0.39753729E-06 -0.60355628E-06 -0.80192750E-06 -0.99115976E-06
 -0.11698554E-05 -0.13367202E-05 -0.14905724E-05 -0.16303504E-05 -0.17551200E-05
 -0.18640801E-05 -0.19565669E-05 -0.20320579E-05 -0.20901739E-05 -0.21306801E-05
 -0.21534863E-05 -0.21586453E-05 -0.21463509E-05 -0.21169343E-05 -0.20708597E-05
 -0.20087186E-05 -0.19312237E-05 -0.18392014E-05 -0.17335835E-05 -0.16153987E-05
 -0.14857629E-05 -0.13458691E-05 -0.11969767E-05 -0.10404010E-05 -0.87750124E-06
 -0.70966980E-06 -0.53832020E-06 -0.36487566E-06 -0.19075758E-06 -0.17374107E-07
  0.15389088E-06  0.32168858E-06  0.48471561E-06  0.64172384E-06  0.79152966E-06
  0.93302261E-06  0.10651734E-05  0.11870409E-05  0.12977787E-05  0.13966409E-05
  0.14829860E-05  0.15562815E-05  0.16161065E-05  0.16621534E-05  0.16942291E-05
  0.17122552E-05  0.17162668E-05  0.17064111E-05  0.16829446E-05  0.16462297E-05
  0.15967305E-05  0.15350075E-05  0.14617124E-05  0.13775813E-05  0.12834277E-05
  0.11801353E-05  0.10686500E-05  0.94997124E-06  0.82514349E-06  0.69524743E-06
  0.56139069E-06  0.42469870E-06  0.28630543E-06  0.14734422E-06  0.89387237E-08
 -0.12780601E-06 -0.26181211E-06 -0.39203717E-06 -0.51748219E-06 -0.63719899E-06
 -0.75029719E-06 -0.85595059E-06 -0.95340302E-06 -0.10419735E-05 -0.11210608E-05
 -0.11901471E-05 -0.12488013E-05 -0.12966813E-05 -0.13335358E-05 -0.13592047E-05
 -0.13736199E-05 -0.13768043E-05 -0.13688705E-05 -0.13500190E-05 -0.13205353E-05
 -0.12807867E-05 -0.12312185E-05 -0.11723489E-05 -0.11047647E-05 -0.10291152E-05
 -0.94610665E-06 -0.85649546E-06 -0.76108190E-06 -0.66070303E-06 -0.55622549E-06
 -0.44853829E-06 -0.33854538E-06 -0.22715822E-06 -0.11528843E-06 -0.38404411E-08
  0.10629562E-06  0.21425090E-06  0.31918452E-06  0.42028997E-06  0.51680114E-06
  0.60799800E-06  0.69321177E-06  0.77182969E-06  0.84329921E-06  0.90713176E-06
  0.96290585E-06  0.10102696E-05  0.10489429E-05  0.10787186E-05  0.10994632E-05
  0.11111175E-05  0.11136958E-05  0.11072849E-05  0.10920428E-05  0.10681964E-05
  0.10360388E-05  0.99592652E-06  0.94827541E-06  0.89355703E-06  0.83229400E-06
  0.76505527E-06  0.69245101E-06  0.61512727E-06  0.53376034E-06  0.44905102E-06
  0.36171869E-06  0.27249536E-06  0.18211963E-06  0.91330735E-07  0.86259610E-09
 atomic pseudo charge-density
  0.60000000E+01  0.59880172E+01  0.59522340E+01  0.58931406E+01  0.58115382E+01
  0.57085152E+01  0.55854165E+01  0.54438069E+01  0.52854296E+01  0.51121626E+01
  0.49259748E+01  0.47288831E+01  0.45229115E+01  0.43100549E+01  0.40922464E+01
  0.38713305E+01  0.36490406E+01  0.34269829E+01  0.32066243E+01  0.29892848E+01
  0.27761351E+01  0.25681961E+01  0.23663428E+01  0.21713091E+01  0.19836957E+01
  0.18039783E+01  0.16325172E+01  0.14695672E+01  0.13152874E+01  0.11697518E+01
  0.10329587E+01  0.90484008E+00  0.78527059E+00  0.67407587E+00  0.57104022E+00
  0.47591364E+00  0.38841836E+00  0.30825458E+00  0.23510580E+00  0.16864342E+00
  0.10853094E+00  0.54427588E-01  0.59914789E-02 -0.37117584E-01 -0.75235760E-01
 -0.10869315E+00 -0.13781209E+00 -0.16290578E+00 -0.18427711E+00 -0.20221776E+00
 -0.21700752E+00 -0.22891376E+00 -0.23819112E+00 -0.24508124E+00 -0.24981276E+00
 -0.25260131E+00 -0.25364962E+00 -0.25314777E+00 -0.25127346E+00 -0.24819227E+00
 -0.24405811E+00 -0.23901361E+00 -0.23319052E+00 -0.22671019E+00 -0.21968406E+00
 -0.21221411E+00 -0.20439335E+00 -0.19630631E+00 -0.18802949E+00 -0.17963189E+00
 -0.17117540E+00 -0.16271529E+00 -0.15430067E+00 -0.14597484E+00 -0.13777577E+00
 -0.12973644E+00 -0.12188525E+00 -0.11424634E+00 -0.10683997E+00 -0.99682801E-01
 -0.92788244E-01 -0.86166711E-01 -0.79825906E-01 -0.73771081E-01 -0.68005271E-01
 -0.62529526E-01 -0.57343119E-01 -0.52443743E-01 -0.47827698E-01 -0.43490061E-01
 -0.39424845E-01 -0.35625146E-01 -0.32083279E-01 -0.28790907E-01 -0.25739150E-01
 -0.22918701E-01 -0.20319911E-01 -0.17932891E-01 -0.15747580E-01 -0.13753828E-01
 -0.11941457E-01 -0.10300321E-01 -0.88203613E-02 -0.74916511E-02 -0.63044385E-02
 -0.52491836E-02 -0.43165897E-02 -0.34976310E-02 -0.27835759E-02 -0.21660068E-02
 -0.16368355E-02 -0.11883163E-02 -0.81305554E-03 -0.50401828E-03 -0.25453295E-03
 -0.58293155E-04  0.90642405E-04  0.19785194E-03  0.26855436E-03  0.30761456E-03
  0.31955018E-03  0.30853948E-03  0.27843046E-03  0.23275074E-03  0.17471842E-03
  0.10725352E-03  0.32990041E-04 -0.45711472E-04 -0.12675108E-03 -0.20827625E-03
 -0.28866852E-03 -0.36653003E-03 -0.44067003E-03 -0.51009141E-03 -0.57397738E-03
 -0.63167825E-03 -0.68269847E-03 -0.72668392E-03 -0.76340944E-03 -0.79276687E-03
 -0.81475323E-03 -0.82945956E-03 -0.83705999E-03 -0.83780137E-03 -0.83199338E-03
 -0.81999909E-03 -0.80222601E-03 -0.77911777E-03 -0.75114611E-03 -0.71880361E-03
 -0.68259681E-03 -0.64303987E-03 -0.60064878E-03 -0.55593604E-03 -0.50940588E-03
 -0.46154991E-03 -0.41284334E-03 -0.36374156E-03 -0.31467724E-03 -0.26605785E-03
 -0.21826357E-03 -0.17164561E-03 -0.12652494E-03 -0.83191304E-04 -0.41902642E-04
 -0.28847887E-05  0.33668525E-04  0.67595400E-04  0.98765246E-04  0.12707803E-03
  0.15246333E-03  0.17487917E-03  0.19431076E-03  0.21076900E-03  0.22428895E-03
  0.23492815E-03  0.24276486E-03  0.24789627E-03  0.25043661E-03  0.25051527E-03
  0.24827492E-03  0.24386958E-03  0.23746275E-03  0.22922554E-03  0.21933490E-03
  0.20797182E-03  0.19531966E-03  0.18156253E-03  0.16688372E-03  0.15146431E-03
  0.13548177E-03  0.11910872E-03  0.10251176E-03  0.85850482E-04  0.69276471E-04
  0.52932528E-04  0.36951940E-04  0.21457891E-04  0.65629673E-05 -0.76312191E-05
 -0.21034305E-04 -0.33567348E-04 -0.45162897E-04 -0.55764974E-04 -0.65328958E-04
 -0.73821387E-04 -0.81219689E-04 -0.87511823E-04 -0.92695873E-04 -0.96779561E-04
 -0.99779724E-04 -0.10172173E-03 -0.10263886E-03 -0.10257165E-03 -0.10156722E-03
 -0.99678568E-04 -0.96963831E-04 -0.93485592E-04 -0.89310129E-04 -0.84506699E-04
 -0.79146818E-04 -0.73303560E-04 -0.67050873E-04 -0.60462917E-04 -0.53613434E-04
 -0.46575144E-04 -0.39419179E-04 -0.32214557E-04 -0.25027686E-04 -0.17921925E-04
 -0.10957174E-04 -0.41895254E-05  0.23290541E-05  0.85509831E-05  0.14433284E-04
  0.19937751E-04  0.25031076E-04  0.29684924E-04  0.33875971E-04  0.37585889E-04
  0.40801303E-04  0.43513697E-04  0.45719293E-04  0.47418887E-04  0.48617663E-04
  0.49324971E-04  0.49554078E-04  0.49321908E-04  0.48648742E-04  0.47557925E-04
  0.46075536E-04  0.44230068E-04  0.42052085E-04  0.39573882E-04  0.36829143E-04
  0.33852602E-04  0.30679699E-04  0.27346256E-04  0.23888151E-04  0.20341012E-04
  0.16739914E-04  0.13119105E-04  0.95117384E-05  0.59496275E-05  0.24630228E-05
 -0.91959319E-06 -0.41716864E-05 -0.72688302E-05 -0.10188840E-04 -0.12911886E-04
 -0.15420578E-04 -0.17700031E-04 -0.19737905E-04 -0.21524424E-04 -0.23052369E-04
 -0.24317050E-04 -0.25316264E-04 -0.26050223E-04 -0.26521475E-04 -0.26734796E-04
 -0.26697076E-04 -0.26417189E-04 -0.25905844E-04 -0.25175438E-04 -0.24239883E-04
 -0.23114443E-04 -0.21815550E-04 -0.20360627E-04 -0.18767899E-04 -0.17056215E-04
 -0.15244856E-04 -0.13353358E-04 -0.11401332E-04 -0.94082908E-05 -0.73934812E-05
 -0.53757252E-05 -0.33732694E-05 -0.14036436E-05  0.51646965E-06  0.23713541E-05
  0.41463669E-05  0.58280331E-05  0.74041275E-05  0.88637425E-05  0.10197343E-04
  0.11396809E-04  0.12455460E-04  0.13368074E-04  0.14130886E-04  0.14741579E-04
  0.15199256E-04  0.15504413E-04  0.15658886E-04  0.15665797E-04  0.15529491E-04
  0.15255458E-04  0.14850253E-04  0.14321405E-04  0.13677326E-04  0.12927206E-04
  0.12080915E-04  0.11148892E-04  0.10142039E-04  0.90716113E-05  0.79491068E-05
  0.67861592E-05  0.55944307E-05  0.43855088E-05  0.31708056E-05  0.19614625E-05
  0.76825876E-06 -0.39847291E-06 -0.15289258E-05 -0.26138908E-05 -0.36448220E-05
 -0.46138930E-05 -0.55140474E-05 -0.63390394E-05 -0.70834675E-05 -0.77427989E-05
 -0.83133866E-05 -0.87924771E-05 -0.91782116E-05 -0.94696177E-05 -0.96665947E-05
 -0.97698911E-05 -0.97810755E-05 -0.97025009E-05 -0.95372629E-05 -0.92891529E-05
 -0.89626062E-05 -0.85626454E-05 -0.80948209E-05 -0.75651474E-05 -0.69800387E-05
 -0.63462402E-05 -0.56707605E-05 -0.49608019E-05 -0.42236918E-05 -0.34668138E-05
 -0.26975410E-05 -0.19231702E-05 -0.11508590E-05 -0.38756538E-06  0.36000927E-06
  0.10854734E-05  0.17827947E-05  0.24463449E-05  0.30709399E-05  0.36518754E-05
  0.41849565E-05  0.46665233E-05  0.50934698E-05  0.54632587E-05  0.57739299E-05
  0.60241039E-05  0.62129805E-05  0.63403313E-05  0.64064888E-05  0.64123292E-05
  0.63592519E-05  0.62491546E-05  0.60844040E-05  0.58678040E-05  0.56025598E-05
  0.52922401E-05  0.49407362E-05  0.45522198E-05  0.41310989E-05  0.36819728E-05
  0.32095867E-05  0.27187851E-05  0.22144666E-05  0.17015386E-05  0.11848727E-05
  0.66926242E-06  0.15938126E-06 -0.34025605E-06 -0.82533070E-06 -0.12917541E-05
 -0.17356993E-05 -0.21536297E-05 -0.25423242E-05 -0.28988990E-05 -0.32208259E-05
 -0.35059475E-05 -0.37524879E-05 -0.39590604E-05 -0.41246713E-05 -0.42487202E-05
 -0.43309968E-05 -0.43716739E-05 -0.43712980E-05 -0.43307755E-05 -0.42513573E-05
 -0.41346197E-05 -0.39824432E-05 -0.37969890E-05 -0.35806733E-05 -0.33361403E-05
 -0.30662332E-05 -0.27739643E-05 -0.24624845E-05 -0.21350515E-05 -0.17949984E-05
 -0.14457020E-05 -0.10905511E-05 -0.73291618E-06 -0.37611884E-06 -0.23403101E-07
  0.32209237E-06  0.65736038E-06  0.97954965E-06  0.12859874E-05  0.15741996E-05
  0.18419295E-05  0.20871535E-05  0.23080943E-05  0.25032325E-05  0.26713144E-05
  0.28113585E-05  0.29226584E-05  0.30047839E-05  0.30575790E-05  0.30811580E-05
  0.30758988E-05  0.30424343E-05  0.29816415E-05  0.28946287E-05  0.27827206E-05
  0.26474423E-05  0.24905012E-05  0.23137681E-05  0.21192569E-05  0.19091036E-05
  0.16855442E-05  0.14508929E-05  0.12075194E-05  0.95782608E-06  0.70422598E-06
  0.44912034E-06  0.19487722E-06 -0.56189390E-07 -0.30183952E-06 -0.53992615E-06
 -0.76841285E-06 -0.98539023E-06 -0.11890907E-05 -0.13779021E-05 -0.15503788E-05
 -0.17052524E-05 -0.18414392E-05 -0.19580470E-05 -0.20543793E-05 -0.21299382E-05
 -0.21844246E-05 -0.22177380E-05 -0.22299731E-05 -0.22214152E-05 -0.21925345E-05
 -0.21439781E-05 -0.20765607E-05 -0.19912543E-05 -0.18891761E-05 -0.17715761E-05
 -0.16398230E-05 -0.14953894E-05 -0.13398367E-05 -0.11747994E-05 -0.10019684E-05
 -0.82307495E-06 -0.63987401E-06 -0.45412786E-06 -0.26758988E-06 -0.81988762E-07
  0.10098682E-06  0.27970285E-06  0.45259389E-06  0.61817614E-06  0.77505944E-06
  0.92195832E-06  0.10577018E-05  0.11812421E-05  0.12916619E-05  0.13881804E-05
  0.14701581E-05  0.15371002E-05  0.15886581E-05  0.16246306E-05  0.16449628E-05
  0.16497440E-05  0.16392046E-05  0.16137113E-05  0.15737614E-05  0.15199760E-05
  0.14530922E-05  0.13739544E-05  0.12835045E-05  0.11827720E-05  0.10728626E-05
  0.95494709E-06  0.83024958E-06  0.70003516E-06  0.56559779E-06  0.42824795E-06
  0.28930035E-06  0.15006189E-06  0.11819786E-07 -0.12416981E-06 -0.25669282E-06
 -0.38458759E-06 -0.50675464E-06 -0.62216568E-06 -0.72987181E-06 -0.82901087E-06
 -0.91881386E-06 -0.99861042E-06 -0.10678333E-05 -0.11260219E-05 -0.11728246E-05
 -0.12080003E-05 -0.12314186E-05 -0.12430592E-05 -0.12430106E-05 -0.12314670E-05
 -0.12087252E-05 -0.11751796E-05 -0.11313179E-05 -0.10777142E-05 -0.10150229E-05
 -0.94397109E-06 -0.86535089E-06 -0.78001100E-06 -0.68884812E-06 -0.59279784E-06
 -0.49282553E-06 -0.38991694E-06 -0.28506889E-06 -0.17927992E-06 -0.73541106E-07
  0.31172866E-07  0.13391242E-06  0.23376136E-06  0.32984478E-06  0.42133638E-06
  0.50746529E-06  0.58752227E-06  0.66086523E-06  0.72692406E-06  0.78520470E-06
  0.83529250E-06  0.87685475E-06  0.90964247E-06  0.93349133E-06  0.94832190E-06
  0.95413899E-06  0.95103031E-06  0.93916437E-06  0.91878768E-06  0.89022126E-06
  0.85385654E-06  0.81015068E-06  0.75962136E-06  0.70284105E-06  0.64043096E-06
  0.57305456E-06  0.50141083E-06  0.42622729E-06  0.34825290E-06  0.26825084E-06
  0.18699127E-06  0.10524418E-06  0.23772259E-07 -0.56675935E-07 -0.13537269E-06
 -0.21161748E-06 -0.28474301E-06 -0.35412086E-06 -0.41916663E-06 -0.47934468E-06
 -0.53417233E-06 -0.58322349E-06 -0.62613171E-06 -0.66259268E-06 -0.69236609E-06
 -0.71527689E-06 -0.73121592E-06 -0.74013993E-06 -0.74207102E-06 -0.73709542E-06
 -0.72536180E-06 -0.70707895E-06 -0.68251297E-06 -0.65198396E-06 -0.61586234E-06
 -0.57456463E-06 -0.52854898E-06 -0.47831032E-06 -0.42437531E-06 -0.36729696E-06
 -0.30764921E-06 -0.24602134E-06 -0.18301229E-06 -0.11922501E-06 -0.55260890E-07
  0.82857942E-08  0.70833234E-07  0.13181727E-06  0.19069632E-06  0.24695606E-06
  0.30011376E-06  0.34972226E-06  0.39537360E-06  0.43670220E-06  0.47338766E-06
  0.50515698E-06  0.53178649E-06  0.55310316E-06  0.56898548E-06  0.57936386E-06
  0.58422052E-06  0.58358890E-06  0.57755269E-06  0.56624429E-06  0.54984291E-06
  0.52857231E-06  0.50269803E-06  0.47252442E-06  0.43839126E-06  0.40067014E-06
  0.35976059E-06  0.31608602E-06  0.27008944E-06  0.22222914E-06  0.17297427E-06
  0.12280029E-06  0.72184593E-07  0.21601997E-07 -0.28479555E-07 -0.77603225E-07
 -0.12532734E-06 -0.17122927E-06 -0.21490903E-06 -0.25599269E-06 -0.29413546E-06
 -0.32902445E-06 -0.36038114E-06 -0.38796349E-06 -0.41156764E-06 -0.43102929E-06
 -0.44622468E-06 -0.45707119E-06 -0.46352750E-06 -0.46559346E-06 -0.46330952E-06
 -0.45675578E-06 -0.44605076E-06 -0.43134974E-06 -0.41284289E-06 -0.39075297E-06
 -0.36533290E-06 -0.33686301E-06 -0.30564805E-06 -0.27201409E-06 -0.23630518E-06
 -0.19888000E-06 -0.16010829E-06 -0.12036732E-06 -0.80038300E-07 -0.39502816E-07
  0.86071293E-09  0.40680476E-07  0.79594620E-07  0.11725446E-06  0.15332752E-06
  0.18750039E-06  0.21948139E-06  0.24900295E-06  0.27582377E-06  0.29973072E-06
  0.32054041E-06  0.33810054E-06  0.35229087E-06  0.36302388E-06  0.37024524E-06
  0.37393379E-06  0.37410135E-06  0.37079219E-06  0.36408216E-06  0.35407761E-06
  0.34091402E-06  0.32475435E-06  0.30578716E-06  0.28422461E-06  0.26030011E-06
  0.23426595E-06  0.20639070E-06  0.17695651E-06  0.14625635E-06  0.11459117E-06
  0.82266971E-07  0.49591969E-07  0.16873675E-07 -0.15583917E-07 -0.47483103E-07
 -0.78535138E-07 -0.10846279E-06 -0.13700277E-06 -0.16390796E-06 -0.18894953E-06
 -0.21191879E-06 -0.23262888E-06 -0.25091624E-06 -0.26664178E-06 -0.27969191E-06
 -0.28997924E-06 -0.29744307E-06 -0.30204960E-06 -0.30379192E-06 -0.30268976E-06
 -0.29878893E-06 -0.29216058E-06 -0.28290025E-06 -0.27112667E-06 -0.25698038E-06
 -0.24062212E-06 -0.22223115E-06 -0.20200333E-06 -0.18014910E-06 -0.15689137E-06
 -0.13246330E-06 -0.10710599E-06 -0.81066191E-07 -0.54593933E-07 -0.27940169E-07
 -0.13544501E-08  0.24917371E-07  0.50635365E-07  0.75567678E-07  0.99492573E-07
  0.12220036E-06  0.14349519E-06  0.16319670E-06  0.18114147E-06  0.19718439E-06
  0.21119969E-06  0.22308195E-06  0.23274679E-06  0.24013139E-06  0.24519483E-06
  0.24791821E-06  0.24830452E-06  0.24637839E-06  0.24218557E-06  0.23579227E-06
  0.22728432E-06  0.21676608E-06  0.20435931E-06  0.19020183E-06  0.17444599E-06
  0.15725718E-06  0.13881205E-06  0.11929683E-06  0.98905410E-07  0.77837512E-07
  0.56296745E-07  0.34488679E-07  0.12618922E-07 -0.91087878E-08 -0.30494443E-07
 -0.51343576E-07 -0.71468993E-07 -0.90692421E-07 -0.10884606E-06 -0.12577399E-06
 -0.14133350E-06 -0.15539627E-06 -0.16784931E-06 -0.17859594E-06 -0.18755639E-06
 -0.19466841E-06 -0.19988761E-06 -0.20318768E-06 -0.20456038E-06 -0.20401546E-06
 -0.20158035E-06 -0.19729967E-06 -0.19123461E-06 -0.18346225E-06 -0.17407456E-06
 -0.16317743E-06 -0.15088954E-06 -0.13734107E-06 -0.12267239E-06 -0.10703265E-06
 -0.90578251E-07 -0.73471380E-07 -0.55878385E-07 -0.37968212E-07 -0.19910806E-07
 -0.18755259E-08  0.15970421E-07  0.33463498E-07  0.50445317E-07  0.66764041E-07
  0.82275722E-07  0.96845540E-07  0.11034895E-06  0.12267271E-06  0.13371582E-06
  0.14339030E-06  0.15162186E-06  0.15835045E-06  0.16353063E-06  0.16713184E-06
  0.16913852E-06  0.16955005E-06  0.16838065E-06  0.16565900E-06  0.16142788E-06
  0.15574360E-06  0.14867529E-06  0.14030415E-06  0.13072255E-06  0.12003305E-06
  0.10834734E-06  0.95785087E-07  0.82472768E-07  0.68542387E-07  0.54130211E-07
  0.39375451E-07  0.24418947E-07  0.94018372E-08 -0.55357485E-08 -0.20255977E-07
 -0.34624564E-07 -0.48511977E-07 -0.61794586E-07 -0.74355740E-07 -0.86086772E-07
 -0.96887921E-07 -0.10666915E-06 -0.11535088E-06 -0.12286461E-06 -0.12915342E-06
 -0.13417240E-06 -0.13788889E-06 -0.14028268E-06 -0.14134607E-06 -0.14108375E-06
 -0.13951270E-06 -0.13666180E-06 -0.13257154E-06 -0.12729344E-06 -0.12088947E-06
 -0.11343138E-06 -0.10499991E-06 -0.95683961E-07 -0.85579653E-07 -0.74789389E-07
 -0.63420819E-07 -0.51585789E-07 -0.39399260E-07 -0.26978208E-07 -0.14440521E-07
 -0.19038897E-08  0.10515272E-07  0.22702899E-07  0.34548304E-07  0.45945165E-07
  0.56792469E-07  0.66995384E-07  0.76466078E-07  0.85124454E-07  0.92898809E-07
  0.99726410E-07  0.10555398E-06  0.11033809E-06  0.11404545E-06  0.11665313E-06
  0.11814862E-06  0.11852990E-06  0.11780526E-06  0.11599321E-06  0.11312211E-06
  0.10922988E-06  0.10436349E-06  0.98578450E-07  0.91938214E-07  0.84513491E-07
  0.76381524E-07  0.67625299E-07  0.58332718E-07  0.48595732E-07  0.38509445E-07
  0.28171202E-07  0.17679658E-07  0.71338540E-08 -0.33677047E-08 -0.13727959E-07
 -0.23852179E-07 -0.33648817E-07 -0.43030324E-07 -0.51913917E-07 -0.60222299E-07
 -0.67884319E-07 -0.74835563E-07 -0.81018884E-07 -0.86384855E-07 -0.90892149E-07
 -0.94507832E-07 -0.97207587E-07 -0.98975848E-07 -0.99805850E-07 -0.99699605E-07
 -0.98667791E-07 -0.96729561E-07 -0.93912279E-07 -0.90251183E-07 -0.85788975E-07
 -0.80575348E-07 -0.74666455E-07 -0.68124320E-07 -0.61016202E-07 -0.53413921E-07
 -0.45393142E-07 -0.37032635E-07 -0.28413514E-07 -0.19618458E-07 -0.10730935E-07
 -0.18344113E-08  0.69884133E-08  0.15656371E-07  0.24090557E-07  0.32215045E-07
  0.39957552E-07  0.47250077E-07  0.54029486E-07  0.60238046E-07  0.65823909E-07
  0.70741527E-07  0.74952016E-07  0.78423444E-07  0.81131061E-07  0.83057448E-07
  0.84192615E-07  0.84534007E-07  0.84086462E-07  0.82862085E-07  0.80880065E-07
  0.78166425E-07  0.74753713E-07  0.70680634E-07  0.65991628E-07  0.60736402E-07
  0.54969417E-07  0.48749333E-07  0.42138426E-07  0.35201972E-07  0.28007614E-07
  0.20624713E-07  0.13123682E-07  0.55753301E-08 -0.19498024E-08 -0.93820929E-08
 -0.16653473E-07 -0.23698044E-07 -0.30452666E-07 -0.36857515E-07 -0.42856604E-07
 -0.48398266E-07 -0.53435586E-07 -0.57926793E-07 -0.61835593E-07 -0.65131451E-07
 -0.67789820E-07 -0.69792306E-07 -0.71126779E-07 -0.71787425E-07 -0.71774734E-07
   17.9523968914998      T
 Non local Part
           0           2   1.13629494093598     
   6.17377536195219        6.86361468384858        6.86361468384858     
   7.62726405911764     
 Reciprocal Space Part
  0.13332014E+03  0.13240184E+03  0.12966104E+03  0.12513983E+03  0.11890753E+03
  0.11105936E+03  0.10171480E+03  0.91015355E+02  0.79122067E+02  0.66212586E+02
  0.52478025E+02  0.38119585E+02  0.23345025E+02  0.83650743E+01 -0.66101803E+01
 -0.21374825E+02 -0.35730526E+02 -0.49489732E+02 -0.62478626E+02 -0.74539759E+02
 -0.85534336E+02 -0.95344094E+02 -0.10387277E+03 -0.11104714E+03 -0.11681753E+03
 -0.12115802E+03 -0.12406601E+03 -0.12556156E+03 -0.12568619E+03 -0.12450136E+03
 -0.12208662E+03 -0.11853755E+03 -0.11396335E+03 -0.10848435E+03 -0.10222938E+03
 -0.95333116E+02 -0.87933337E+02 -0.80168338E+02 -0.72174394E+02 -0.64083386E+02
 -0.56020627E+02 -0.48102924E+02 -0.40436899E+02 -0.33117595E+02 -0.26227390E+02
 -0.19835218E+02 -0.13996107E+02 -0.87510213E+01 -0.41270018E+01 -0.13758307E+00
  0.32165351E+01  0.59465898E+01  0.80746629E+01  0.96324290E+01  0.10659781E+02
  0.11203370E+02  0.11315097E+02  0.11050592E+02  0.10467724E+02  0.96251571E+01
  0.85810002E+01  0.73915672E+01  0.61102694E+01  0.47866591E+01  0.34656370E+01
  0.21868300E+01  0.98414411E+00 -0.11451009E+00 -0.10873239E+01 -0.19185390E+01
 -0.25982500E+01 -0.31220770E+01 -0.34907253E+01 -0.37094535E+01 -0.37874679E+01
 -0.37372672E+01 -0.35739564E+01 -0.33145512E+01 -0.29772924E+01 -0.25809875E+01
 -0.21443949E+01 -0.16856651E+01 -0.12218494E+01 -0.76848350E+00 -0.33925360E+00
  0.54253922E-01  0.40271772E+00  0.69916417E+00  0.93897157E+00  0.11198020E+01
  0.12414691E+01  0.13057499E+01  0.13161523E+01  0.12776475E+01  0.11963789E+01
  0.10793583E+01  0.93416009E+00  0.76862224E+00  0.59056389E+00  0.40752671E+00
 Real Space Part
 -0.60797257E+03 -0.60754490E+03 -0.60626327E+03 -0.60413193E+03 -0.60115784E+03
 -0.59735074E+03 -0.59272296E+03 -0.58728943E+03 -0.58106749E+03 -0.57407679E+03
 -0.56633916E+03 -0.55787842E+03 -0.54872028E+03 -0.53889208E+03 -0.52842271E+03
 -0.51734236E+03 -0.50568238E+03 -0.49347508E+03 -0.48075361E+03 -0.46755171E+03
 -0.45390365E+03 -0.43984402E+03 -0.42540760E+03 -0.41062925E+03 -0.39554382E+03
 -0.38018597E+03 -0.36459019E+03 -0.34879063E+03 -0.33282112E+03 -0.31671506E+03
 -0.30050540E+03 -0.28422465E+03 -0.26790482E+03 -0.25157743E+03 -0.23527353E+03
 -0.21902370E+03 -0.20285806E+03 -0.18680630E+03 -0.17089771E+03 -0.15516119E+03
 -0.13962530E+03 -0.12431827E+03 -0.10926804E+03 -0.94502258E+02 -0.80048312E+02
 -0.65933328E+02 -0.52184172E+02 -0.38827429E+02 -0.25889387E+02 -0.13395988E+02
 -0.13727809E+01  0.10155154E+02  0.21163293E+02  0.31627773E+02  0.41525521E+02
  0.50834398E+02  0.59533368E+02  0.67602678E+02  0.75024068E+02  0.81780987E+02
  0.87858837E+02  0.93245220E+02  0.97930204E+02  0.10190659E+03  0.10517018E+03
  0.10772006E+03  0.10955885E+03  0.11069295E+03  0.11113279E+03  0.11089299E+03
  0.10999257E+03  0.10845502E+03  0.10630843E+03  0.10358544E+03  0.10032325E+03
  0.96563454E+02  0.92351883E+02  0.87738311E+02  0.82776140E+02  0.77521956E+02
  0.72035054E+02  0.66376878E+02  0.60610392E+02  0.54799429E+02  0.49007957E+02
  0.43299364E+02  0.37735686E+02  0.32376867E+02  0.27280018E+02  0.22498707E+02
  0.18082294E+02  0.14075333E+02  0.10517013E+02  0.74407284E+01  0.48736645E+01
  0.28366048E+01  0.13436873E+01  0.40004874E+00  0.19080125E-01  0.00000000E+00
 Reciprocal Space Part
 -0.11160074E+03 -0.11080651E+03 -0.10843609E+03 -0.10452607E+03 -0.99136710E+02
 -0.92350819E+02 -0.84272253E+02 -0.75024038E+02 -0.64746144E+02 -0.53592973E+02
 -0.41730602E+02 -0.29333844E+02 -0.16583177E+02 -0.36616116E+01  0.92484483E+01
  0.21968283E+02  0.34325820E+02  0.46158427E+02  0.57315470E+02  0.67660614E+02
  0.77073799E+02  0.85452879E+02  0.92714891E+02  0.98796935E+02  0.10365666E+03
  0.10727237E+03  0.10964269E+03  0.11078596E+03  0.11073916E+03  0.10955661E+03
  0.10730838E+03  0.10407837E+03  0.99962334E+02  0.95065636E+02  0.89500976E+02
  0.83386037E+02  0.76841147E+02  0.69986985E+02  0.62942378E+02  0.55822237E+02
  0.48735664E+02  0.41784265E+02  0.35060690E+02  0.28647427E+02  0.22615858E+02
  0.17025591E+02  0.11924066E+02  0.73464198E+01  0.33156255E+01 -0.15713979E+00
 -0.30718984E+01 -0.54390808E+01 -0.72785643E+01 -0.86185738E+01 -0.94944753E+01
 -0.99474957E+01 -0.10023402E+02 -0.97711720E+01 -0.92416852E+01 -0.84864668E+01
 -0.75565058E+01 -0.65011720E+01 -0.53672507E+01 -0.41981101E+01 -0.30330109E+01
 -0.19065672E+01 -0.84835936E+00  0.11730131E+00  0.97146117E+00  0.17004744E+01
  0.22958258E+01  0.27538401E+01  0.30752928E+01  0.32649410E+01  0.33309906E+01
  0.32845198E+01  0.31388768E+01  0.29090693E+01  0.26111629E+01  0.22617043E+01
  0.18771819E+01  0.14735370E+01  0.10657336E+01  0.66739549E+00  0.29051418E+00
 -0.54768353E-01 -0.36030325E+00 -0.62000550E+00 -0.82985602E+00 -0.98784050E+00
 -0.10938318E+01 -0.11494243E+01 -0.11577281E+01 -0.11231342E+01 -0.10510581E+01
 -0.94767306E+00 -0.81964149E+00 -0.67385252E+00 -0.51717445E+00 -0.35622792E+00
 Real Space Part
  0.53358436E+03  0.53321404E+03  0.53210424E+03  0.53025858E+03  0.52768301E+03
  0.52438580E+03  0.52037749E+03  0.51567078E+03  0.51028046E+03  0.50422328E+03
  0.49751786E+03  0.49018452E+03  0.48224517E+03  0.47372318E+03  0.46464317E+03
  0.45503094E+03  0.44491327E+03  0.43431777E+03  0.42327277E+03  0.41180715E+03
  0.39995024E+03  0.38773164E+03  0.37518117E+03  0.36232874E+03  0.34920423E+03
  0.33583744E+03  0.32225801E+03  0.30849534E+03  0.29457857E+03  0.28053651E+03
  0.26639762E+03  0.25219000E+03  0.23794137E+03  0.22367907E+03  0.20943007E+03
  0.19522094E+03  0.18107795E+03  0.16702698E+03  0.15309364E+03  0.13930323E+03
  0.12568080E+03  0.11225116E+03  0.99038866E+02  0.86068306E+02  0.73363655E+02
  0.60948897E+02  0.48847824E+02  0.37084016E+02  0.25680821E+02  0.14661318E+02
  0.40482635E+01 -0.61359662E+01 -0.15869461E+02 -0.25130870E+02 -0.33899513E+02
 -0.42155516E+02 -0.49879953E+02 -0.57055015E+02 -0.63664190E+02 -0.69692462E+02
 -0.75126520E+02 -0.79954984E+02 -0.84168639E+02 -0.87760669E+02 -0.90726908E+02
 -0.93066070E+02 -0.94779991E+02 -0.95873844E+02 -0.96356346E+02 -0.96239931E+02
 -0.95540902E+02 -0.94279539E+02 -0.92480162E+02 -0.90171145E+02 -0.87384877E+02
 -0.84157662E+02 -0.80529550E+02 -0.76544098E+02 -0.72248091E+02 -0.67691147E+02
 -0.62925307E+02 -0.58004538E+02 -0.52984182E+02 -0.47920380E+02 -0.42869431E+02
 -0.37887153E+02 -0.33028212E+02 -0.28345462E+02 -0.23889293E+02 -0.19707001E+02
 -0.15842206E+02 -0.12334319E+02 -0.92180442E+01 -0.65230017E+01 -0.42733596E+01
 -0.24876586E+01 -0.11785958E+01 -0.35095468E+00 -0.16739862E-01  0.00000000E+00
 Non local Part
           1           2   1.13629494093598     
   2.29375916931652        3.13456334571211        3.13456334571211     
   4.30026666293712     
 Reciprocal Space Part
  0.00000000E+00  0.34213815E+01  0.67636442E+01  0.99492965E+01  0.12904066E+02
  0.15558420E+02  0.17848986E+02  0.19719838E+02  0.21123618E+02  0.22022477E+02
  0.22388813E+02  0.22205783E+02  0.21467594E+02  0.20179557E+02  0.18357906E+02
  0.16029393E+02  0.13230667E+02  0.10007450E+02  0.64135338E+01  0.25096188E+01
 -0.16379730E+01 -0.59586899E+01 -0.10379209E+02 -0.14824930E+02 -0.19221473E+02
 -0.23496148E+02 -0.27579362E+02 -0.31405936E+02 -0.34916306E+02 -0.38057585E+02
 -0.40784459E+02 -0.43059913E+02 -0.44855765E+02 -0.46152999E+02 -0.46941912E+02
 -0.47222054E+02 -0.47001977E+02 -0.46298815E+02 -0.45137688E+02 -0.43550957E+02
 -0.41577366E+02 -0.39261058E+02 -0.36650531E+02 -0.33797525E+02 -0.30755890E+02
 -0.27580447E+02 -0.24325876E+02 -0.21045641E+02 -0.17791000E+02 -0.14610086E+02
 -0.11547106E+02 -0.86416534E+01 -0.59281473E+01 -0.34354148E+01 -0.11864086E+01
  0.80193350E+00  0.25186917E+01  0.39588366E+01  0.51229797E+01  0.60170133E+01
  0.66516537E+01  0.70419034E+01  0.72064477E+01  0.71670054E+01  0.69476486E+01
  0.65741111E+01  0.60731020E+01  0.54716401E+01  0.47964242E+01  0.40732523E+01
  0.33265007E+01  0.25786726E+01  0.18500227E+01  0.11582618E+01  0.51834498E+00
 -0.57657300E-01 -0.56060769E+00 -0.98427311E+00 -0.13252251E+01 -0.15826761E+01
 -0.17582608E+01 -0.18557714E+01 -0.18808569E+01 -0.18406976E+01 -0.17436644E+01
 -0.15989735E+01 -0.14163455E+01 -0.12056797E+01 -0.97674853E+00 -0.73892248E+00
 -0.50092779E+00 -0.27064366E+00 -0.54940504E-01  0.14043861E+00  0.31095339E+00
  0.45329955E+00  0.56540205E+00  0.64637161E+00  0.69642847E+00  0.71679818E+00
 Real Space Part
  0.00000000E+00 -0.68347144E+01 -0.13655621E+02 -0.20448859E+02 -0.27200458E+02
 -0.33896295E+02 -0.40522045E+02 -0.47063146E+02 -0.53504772E+02 -0.59831808E+02
 -0.66028845E+02 -0.72080180E+02 -0.77969829E+02 -0.83681552E+02 -0.89198888E+02
 -0.94505211E+02 -0.99583783E+02 -0.10441783E+03 -0.10899062E+03 -0.11328557E+03
 -0.11728631E+03 -0.12097684E+03 -0.12434161E+03 -0.12736564E+03 -0.13003467E+03
 -0.13233524E+03 -0.13425485E+03 -0.13578210E+03 -0.13690676E+03 -0.13761995E+03
 -0.13791423E+03 -0.13778370E+03 -0.13722416E+03 -0.13623317E+03 -0.13481013E+03
 -0.13295643E+03 -0.13067548E+03 -0.12797278E+03 -0.12485599E+03 -0.12133498E+03
 -0.11742185E+03 -0.11313097E+03 -0.10847896E+03 -0.10348472E+03 -0.98169392E+02
 -0.92556304E+02 -0.86670950E+02 -0.80540900E+02 -0.74195716E+02 -0.67666842E+02
 -0.60987474E+02 -0.54192412E+02 -0.47317888E+02 -0.40401372E+02 -0.33481353E+02
 -0.26597099E+02 -0.19788397E+02 -0.13095261E+02 -0.65576245E+01 -0.21501225E+00
  0.58938125E+01  0.11731215E+02  0.17261072E+02  0.22449163E+02  0.27263574E+02
  0.31675099E+02  0.35657636E+02  0.39188580E+02  0.42249189E+02  0.44824934E+02
  0.46905808E+02  0.48486604E+02  0.49567131E+02  0.50152374E+02  0.50252599E+02
  0.49883380E+02  0.49065539E+02  0.47825005E+02  0.46192613E+02  0.44203766E+02
  0.41898065E+02  0.39318820E+02  0.36512492E+02  0.33528090E+02  0.30416459E+02
  0.27229586E+02  0.24019808E+02  0.20839056E+02  0.17738056E+02  0.14765563E+02
  0.11967626E+02  0.93868825E+01  0.70619165E+01  0.50267026E+01  0.33100930E+01
  0.19354652E+01  0.92038999E+00  0.27509474E+00  0.11743117E-01  0.00000000E+00
 Reciprocal Space Part
  0.00000000E+00 -0.21234046E+01 -0.41939672E+01 -0.61599523E+01 -0.79718132E+01
 -0.95832265E+01 -0.10952056E+02 -0.12041224E+02 -0.12819475E+02 -0.13262008E+02
 -0.13350976E+02 -0.13075827E+02 -0.12433497E+02 -0.11428435E+02 -0.10072472E+02
 -0.83845407E+01 -0.63902369E+01 -0.41212520E+01 -0.16146795E+01  0.10877837E+01
  0.39407247E+01  0.68959685E+01  0.99035780E+01  0.12912877E+02  0.15873475E+02
  0.18736266E+02  0.21454391E+02  0.23984130E+02  0.26285719E+02  0.28324061E+02
  0.30069336E+02  0.31497477E+02  0.32590524E+02  0.33336841E+02  0.33731194E+02
  0.33774694E+02  0.33474613E+02  0.32844074E+02  0.31901626E+02  0.30670725E+02
  0.29179117E+02  0.27458166E+02  0.25542111E+02  0.23467306E+02  0.21271424E+02
  0.18992676E+02  0.16669040E+02  0.14337527E+02  0.12033495E+02  0.97900242E+01
  0.76373733E+01  0.56025094E+01  0.37087358E+01  0.19754122E+01  0.41777294E+00
 -0.95315714E+00 -0.21305520E+01 -0.31116828E+01 -0.38977326E+01 -0.44935349E+01
 -0.49072458E+01 -0.51499616E+01 -0.52352912E+01 -0.51788987E+01 -0.49980251E+01
 -0.47110042E+01 -0.43367827E+01 -0.38944569E+01 -0.34028349E+01 -0.28800342E+01
 -0.23431223E+01 -0.18078062E+01 -0.12881758E+01 -0.79650336E+00 -0.34310213E+00
  0.63757725E-01  0.41787631E+00  0.71509778E+00  0.95323470E+00  0.11319482E+01
  0.12525897E+01  0.13180121E+01  0.13323547E+01  0.13008135E+01  0.12293995E+01
  0.11246957E+01  0.99361800E+00  0.84318584E+00  0.68030954E+00  0.51159757E+00
  0.34318861E+00  0.18061082E+00  0.28670499E-01 -0.10862896E+00 -0.22813766E+00
 -0.32758028E+00 -0.40554905E+00 -0.46147113E+00 -0.49555311E+00 -0.50870615E+00
 Real Space Part
  0.00000000E+00  0.47024439E+01  0.93967067E+01  0.14074552E+02  0.18727631E+02
  0.23347438E+02  0.27925257E+02  0.32452120E+02  0.36918781E+02  0.41315678E+02
  0.45632926E+02  0.49860300E+02  0.53987242E+02  0.58002870E+02  0.61896003E+02
  0.65655189E+02  0.69268751E+02  0.72724836E+02  0.76011479E+02  0.79116669E+02
  0.82028426E+02  0.84734884E+02  0.87224380E+02  0.89485548E+02  0.91507412E+02
  0.93279489E+02  0.94791884E+02  0.96035397E+02  0.97001618E+02  0.97683028E+02
  0.98073094E+02  0.98166361E+02  0.97958541E+02  0.97446597E+02  0.96628821E+02
  0.95504904E+02  0.94076002E+02  0.92344793E+02  0.90315526E+02  0.87994063E+02
  0.85387909E+02  0.82506235E+02  0.79359889E+02  0.75961396E+02  0.72324950E+02
  0.68466393E+02  0.64403175E+02  0.60154313E+02  0.55740322E+02  0.51183150E+02
  0.46506075E+02  0.41733611E+02  0.36891376E+02  0.32005961E+02  0.27104769E+02
  0.22215846E+02  0.17367692E+02  0.12589052E+02  0.79086942E+01  0.33551739E+01
 -0.10434220E+01 -0.52597399E+01 -0.92674361E+01 -0.13041462E+02 -0.16558354E+02
 -0.19796527E+02 -0.22736563E+02 -0.25361497E+02 -0.27657083E+02 -0.29612055E+02
 -0.31218348E+02 -0.32471311E+02 -0.33369864E+02 -0.33916622E+02 -0.34117979E+02
 -0.33984135E+02 -0.33529059E+02 -0.32770399E+02 -0.31729346E+02 -0.30430403E+02
 -0.28901119E+02 -0.27171757E+02 -0.25274895E+02 -0.23245003E+02 -0.21117936E+02
 -0.18930447E+02 -0.16719617E+02 -0.14522322E+02 -0.12374660E+02 -0.10311403E+02
 -0.83654703E+01 -0.65674237E+01 -0.49450018E+01 -0.35227210E+01 -0.23215029E+01
 -0.13584161E+01 -0.64643333E+00 -0.19334234E+00 -0.82513639E-02  0.00000000E+00
 Non local Part
           2           1   1.13629494093598     
   4.03316078884357     
 Reciprocal Space Part
  0.00000000E+00  0.17326636E-01  0.68978445E-01  0.15397766E+00  0.27071629E+00
  0.41698809E+00  0.59003233E+00  0.78658840E+00  0.10029602E+01  0.12350887E+01
  0.14786315E+01  0.17290472E+01  0.19816832E+01  0.22318650E+01  0.24749850E+01
  0.27065892E+01  0.29224595E+01  0.31186908E+01  0.32917608E+01  0.34385907E+01
  0.35565972E+01  0.36437333E+01  0.36985174E+01  0.37200517E+01  0.37080281E+01
  0.36627224E+01  0.35849768E+01  0.34761728E+01  0.33381923E+01  0.31733711E+01
  0.29844440E+01  0.27744836E+01  0.25468340E+01  0.23050409E+01  0.20527801E+01
  0.17937852E+01  0.15317763E+01  0.12703922E+01  0.10131254E+01  0.76326265E+00
  0.52383244E+00  0.29755853E+00  0.86822087E-01 -0.10636794E+00 -0.28039581E+00
 -0.43405111E+00 -0.56653209E+00 -0.67744064E+00 -0.76676914E+00 -0.83488008E+00
 -0.88247893E+00 -0.91058142E+00 -0.92047597E+00 -0.91368242E+00 -0.89190824E+00
 -0.85700308E+00 -0.81091296E+00 -0.75563502E+00 -0.69317387E+00 -0.62550039E+00
 -0.55451381E+00 -0.48200772E+00 -0.40964059E+00 -0.33891119E+00 -0.27113922E+00
 -0.20745124E+00 -0.14877194E+00 -0.95820667E-01 -0.49112811E-01 -0.89659134E-02
  0.24490129E-01  0.51299186E-01  0.71661960E-01  0.85916605E-01  0.94517543E-01
  0.98013151E-01  0.97022917E-01  0.92214725E-01  0.84282799E-01  0.73926842E-01
  0.61832827E-01  0.48655792E-01  0.35004969E-01  0.21431444E-01  0.84184920E-02
 -0.36253610E-02 -0.14370577E-01 -0.23568236E-01 -0.31049221E-01 -0.36721180E-01
 -0.40563522E-01 -0.42620756E-01 -0.42994487E-01 -0.41834430E-01 -0.39328764E-01
 -0.35694182E-01 -0.31165949E-01 -0.25988268E-01 -0.20405236E-01 -0.14652590E-01
 Real Space Part
  0.00000000E+00 -0.61772341E-02 -0.24610304E-01 -0.55004730E-01 -0.96874413E-01
 -0.14954860E+00 -0.21218143E+00 -0.28376398E+00 -0.36313842E+00 -0.44901424E+00
 -0.53998611E+00 -0.63455313E+00 -0.73113913E+00 -0.82811374E+00 -0.92381384E+00
 -0.10165651E+01 -0.11047032E+01 -0.11865946E+01 -0.12606569E+01 -0.13253769E+01
 -0.13793292E+01 -0.14211917E+01 -0.14497605E+01 -0.14639627E+01 -0.14628672E+01
 -0.14456945E+01 -0.14118233E+01 -0.13607960E+01 -0.12923226E+01 -0.12062820E+01
 -0.11027221E+01 -0.98185811E+00 -0.84406929E+00 -0.68989414E+00 -0.52002449E+00
 -0.33529817E+00 -0.13669069E+00  0.74693986E-01  0.29763365E+00  0.53079861E+00
  0.77276319E+00  0.10220176E+01  0.12769805E+01  0.15360111E+01  0.17974227E+01
  0.20594952E+01  0.23204881E+01  0.25786542E+01  0.28322517E+01  0.30795579E+01
  0.33188816E+01  0.35485755E+01  0.37670491E+01  0.39727803E+01  0.41643273E+01
  0.43403402E+01  0.44995717E+01  0.46408881E+01  0.47632791E+01  0.48658671E+01
  0.49479166E+01  0.50088419E+01  0.50482145E+01  0.50657696E+01  0.50614111E+01
  0.50352161E+01  0.49874376E+01  0.49185057E+01  0.48290279E+01  0.47197870E+01
  0.45917376E+01  0.44460003E+01  0.42838550E+01  0.41067302E+01  0.39161926E+01
  0.37139330E+01  0.35017505E+01  0.32815356E+01  0.30552512E+01  0.28249114E+01
  0.25925604E+01  0.23602494E+01  0.21300135E+01  0.19038483E+01  0.16836864E+01
  0.14713749E+01  0.12686540E+01  0.10771361E+01  0.89828830E+00  0.73341516E+00
  0.58364545E+00  0.44992099E+00  0.33298740E+00  0.23338989E+00  0.15146937E+00
  0.87365591E-01  0.41018721E-01  0.12103623E-01  0.59402406E-03  0.00000000E+00
 PAW radial sets
         367   1.08082277722336     
(5E20.12)                                
 augmentation charges (non sperical)
 -0.405301730270E+00 -0.463867481712E+00 -0.179745093209E+00 -0.260161862652E+00 -0.882275160110E-01
 -0.463867481712E+00 -0.530946659903E+00 -0.205066666076E+00 -0.296916356715E+00 -0.100282339103E+00
 -0.179745093209E+00 -0.205066666076E+00 -0.807080562124E-01 -0.115407596217E+00 -0.390360894281E-01
 -0.260161862652E+00 -0.296916356715E+00 -0.115407596217E+00 -0.165205108457E+00 -0.553938434358E-01
 -0.882275160110E-01 -0.100282339103E+00 -0.390360894281E-01 -0.553938434358E-01  0.988763150678E-02
 uccopancies in atom
  0.200000000360E+01  0.000000000000E+00  0.000000000000E+00  0.000000000000E+00  0.000000000000E+00
  0.000000000000E+00  0.000000000000E+00  0.000000000000E+00  0.000000000000E+00  0.000000000000E+00
  0.000000000000E+00  0.000000000000E+00  0.133333333602E+01  0.000000000000E+00  0.000000000000E+00
  0.000000000000E+00  0.000000000000E+00  0.000000000000E+00  0.000000000000E+00  0.000000000000E+00
  0.000000000000E+00  0.000000000000E+00  0.000000000000E+00  0.000000000000E+00  0.000000000000E+00
 grid
  0.498607011224E-04  0.514820467356E-04  0.531561144635E-04  0.548846186975E-04  0.566693295772E-04
  0.585120748024E-04  0.604147415052E-04  0.623792781826E-04  0.644076966918E-04  0.665020743107E-04
  0.686645558649E-04  0.708973559245E-04  0.732027610719E-04  0.755831322434E-04  0.780409071471E-04
  0.805786027592E-04  0.831988179019E-04  0.859042359045E-04  0.886976273512E-04  0.915818529192E-04
  0.945598663073E-04  0.976347172616E-04  0.100809554698E-03  0.104087629928E-03  0.107472299986E-03
  0.110967031071E-03  0.114575402093E-03  0.118301108338E-03  0.122147965256E-03  0.126119912364E-03
  0.130221017284E-03  0.134455479904E-03  0.138827636685E-03  0.143341965098E-03  0.148003088208E-03
  0.152815779414E-03  0.157784967332E-03  0.162915740844E-03  0.168213354311E-03  0.173683232952E-03
  0.179330978401E-03  0.185162374443E-03  0.191183392936E-03  0.197400199930E-03  0.203819161979E-03
  0.210446852660E-03  0.217290059307E-03  0.224355789964E-03  0.231651280554E-03  0.239184002299E-03
  0.246961669362E-03  0.254992246756E-03  0.263283958492E-03  0.271845296009E-03  0.280685026865E-03
  0.289812203715E-03  0.299236173587E-03  0.308966587449E-03  0.319013410095E-03  0.329386930350E-03
  0.340097771605E-03  0.351156902698E-03  0.362575649144E-03  0.374365704739E-03  0.386539143529E-03
  0.399108432179E-03  0.412086442740E-03  0.425486465828E-03  0.439322224237E-03  0.453607886995E-03
  0.468358083867E-03  0.483587920343E-03  0.499312993109E-03  0.515549406011E-03  0.532313786556E-03
  0.549623302934E-03  0.567495681603E-03  0.585949225440E-03  0.605002832487E-03  0.624676015302E-03
  0.644988920944E-03  0.665962351602E-03  0.687617785904E-03  0.709977400905E-03  0.733064094805E-03
  0.756901510397E-03  0.781514059277E-03  0.806926946845E-03  0.833166198120E-03  0.860258684387E-03
  0.888232150721E-03  0.917115244394E-03  0.946937544219E-03  0.977729590837E-03  0.100952291799E-02
  0.104235008484E-02  0.107624470925E-02  0.111124150229E-02  0.114737630374E-02  0.118468611878E-02
  0.122320915593E-02  0.126298486615E-02  0.130405398324E-02  0.134645856555E-02  0.139024203910E-02
  0.143544924198E-02  0.148212647033E-02  0.153032152569E-02  0.158008376402E-02  0.163146414620E-02
  0.168451529023E-02  0.173929152511E-02  0.179584894651E-02  0.185424547415E-02  0.191454091120E-02
  0.197679700543E-02  0.204107751254E-02  0.210744826139E-02  0.217597722141E-02  0.224673457225E-02
  0.231979277562E-02  0.239522664951E-02  0.247311344479E-02  0.255353292435E-02  0.263656744476E-02
  0.272230204064E-02  0.281082451169E-02  0.290222551266E-02  0.299659864616E-02  0.309404055853E-02
  0.319465103881E-02  0.329853312091E-02  0.340579318917E-02  0.351654108727E-02  0.363089023073E-02
  0.374895772307E-02  0.387086447572E-02  0.399673533184E-02  0.412669919420E-02  0.426088915714E-02
  0.439944264291E-02  0.454250154239E-02  0.469021236039E-02  0.484272636571E-02  0.500019974599E-02
  0.516279376776E-02  0.533067494149E-02  0.550401519218E-02  0.568299203539E-02  0.586778875905E-02
  0.605859461116E-02  0.625560499357E-02  0.645902166213E-02  0.666905293329E-02  0.688591389743E-02
  0.710982663912E-02  0.734102046458E-02  0.757973213648E-02  0.782620611644E-02  0.808069481535E-02
  0.834345885188E-02  0.861476731936E-02  0.889489806137E-02  0.918413795627E-02  0.948278321098E-02
  0.979113966435E-02  0.101095231003E-01  0.104382595714E-01  0.107776857324E-01  0.111281491853E-01
  0.114900088355E-01  0.118636352588E-01  0.122494110812E-01  0.126477313711E-01  0.130590040430E-01
  0.134836502763E-01  0.139221049457E-01  0.143748170671E-01  0.148422502573E-01  0.153248832088E-01
  0.158232101799E-01  0.163377415008E-01  0.168690040967E-01  0.174175420270E-01  0.179839170422E-01
  0.185687091600E-01  0.191725172587E-01  0.197959596903E-01  0.204396749146E-01  0.211043221521E-01
  0.217905820596E-01  0.224991574273E-01  0.232307738983E-01  0.239861807118E-01  0.247661514704E-01
  0.255714849322E-01  0.264030058291E-01  0.272615657112E-01  0.281480438189E-01  0.290633479831E-01
  0.300084155553E-01  0.309842143673E-01  0.319917437224E-01  0.330320354186E-01  0.341061548056E-01
  0.352152018754E-01  0.363603123892E-01  0.375426590402E-01  0.387634526547E-01  0.400239434321E-01
  0.413254222250E-01  0.426692218614E-01  0.440567185096E-01  0.454893330875E-01  0.469685327175E-01
  0.484958322293E-01  0.500727957111E-01  0.517010381113E-01  0.533822268924E-01  0.551180837385E-01
  0.569103863189E-01  0.587609701079E-01  0.606717302652E-01  0.626446235759E-01  0.646816704554E-01
  0.667849570176E-01  0.689566372117E-01  0.711989350281E-01  0.735141467755E-01  0.759046434333E-01
  0.783728730788E-01  0.809213633950E-01  0.835527242585E-01  0.862696504128E-01  0.890749242278E-01
  0.919714185489E-01  0.949620996395E-01  0.980500302183E-01  0.101238372596E+00  0.104530391914E+00
  0.107929459488E+00  0.111439056259E+00  0.115062776362E+00  0.118804330803E+00  0.122667551260E+00
  0.126656394009E+00  0.130774943973E+00  0.135027418908E+00  0.139418173718E+00  0.143951704922E+00
  0.148632655250E+00  0.153465818406E+00  0.158456143970E+00  0.163608742472E+00  0.168928890623E+00
  0.174422036721E+00  0.180093806225E+00  0.185950007524E+00  0.191996637880E+00  0.198239889571E+00
  0.204686156232E+00  0.211342039403E+00  0.218214355291E+00  0.225310141747E+00  0.232636665476E+00
  0.240201429480E+00  0.248012180737E+00  0.256076918140E+00  0.264403900684E+00  0.273001655927E+00
  0.281878988722E+00  0.291044990234E+00  0.300509047248E+00  0.310280851786E+00  0.320370411030E+00
  0.330788057570E+00  0.341544459987E+00  0.352650633776E+00  0.364117952631E+00  0.375958160087E+00
  0.388183381553E+00  0.400806136722E+00  0.413839352399E+00  0.427296375736E+00  0.441190987901E+00
  0.455537418190E+00  0.470350358603E+00  0.485644978884E+00  0.501436942061E+00  0.517742420485E+00
  0.534578112390E+00  0.551961258995E+00  0.569909662163E+00  0.588441702626E+00  0.607576358813E+00
  0.627333226284E+00  0.647732537797E+00  0.668795184032E+00  0.690542734976E+00  0.712997462024E+00
  0.736182360778E+00  0.760121174600E+00  0.784838418928E+00  0.810359406379E+00  0.836710272675E+00
  0.863918003406E+00  0.892010461665E+00  0.921016416584E+00  0.950965572796E+00  0.981888600855E+00
  0.101381716864E+01  0.104678397380E+01  0.108082277722E+01  0.111596843762E+01  0.115225694721E+01
  0.118972546860E+01  0.122841237284E+01  0.126835727869E+01  0.130960109323E+01  0.135218605372E+01
  0.139615577090E+01  0.144155527358E+01  0.148843105484E+01  0.153683111956E+01  0.158680503365E+01
  0.163840397475E+01  0.169168078469E+01  0.174669002358E+01  0.180348802569E+01  0.186213295713E+01
  0.192268487544E+01  0.198520579108E+01  0.204975973092E+01  0.211641280385E+01  0.218523326842E+01
  0.225629160282E+01  0.232966057699E+01  0.240541532716E+01  0.248363343282E+01  0.256439499615E+01
  0.264778272404E+01  0.273388201281E+01  0.282278103567E+01  0.291457083297E+01  0.300934540550E+01
  0.310720181068E+01  0.320824026205E+01  0.331256423179E+01  0.342028055677E+01  0.353149954792E+01
  0.364633510320E+01  0.376490482427E+01  0.388733013686E+01  0.401373641521E+01  0.414425311038E+01
  0.427901388289E+01  0.441815673952E+01  0.456182417474E+01  0.471016331654E+01  0.486332607718E+01
  0.502146930869E+01  0.518475496358E+01  0.535335026061E+01  0.552742785611E+01  0.570716602075E+01
  0.589274882210E+01  0.608436631319E+01
 aepotential
  0.119609740105E+05  0.121070326365E+05  0.122364822335E+05  0.123483481657E+05  0.124417636288E+05
  0.125159779763E+05  0.125703615470E+05  0.126044204670E+05  0.126178038235E+05  0.126103112621E+05
  0.125818970890E+05  0.125326704386E+05  0.124628980538E+05  0.123730016771E+05  0.122635488832E+05
  0.121352476494E+05  0.119889406261E+05  0.118255908641E+05  0.116462588289E+05  0.114521054412E+05
  0.112443691324E+05  0.110243385370E+05  0.107933562315E+05  0.105527836156E+05  0.103039953940E+05
  0.100483606746E+05  0.978722969306E+04  0.952191469691E+04  0.925369011900E+04  0.898376608628E+04
  0.871329353529E+04  0.844334770869E+04  0.817492688406E+04  0.790894689475E+04  0.764623867542E+04
  0.738754697159E+04  0.713353103312E+04  0.688476539048E+04  0.664174263538E+04  0.640487641924E+04
  0.617450542139E+04  0.595089790540E+04  0.573425652443E+04  0.552472352984E+04  0.532238606222E+04
  0.512728151917E+04  0.493940285353E+04  0.475870374984E+04  0.458510360353E+04  0.441849225413E+04
  0.425873443525E+04  0.410567391410E+04  0.395913729507E+04  0.381893750199E+04  0.368487693730E+04
  0.355675024799E+04  0.343434681031E+04  0.331745306675E+04  0.320585418595E+04  0.309933590617E+04
  0.299768583514E+04  0.290069469675E+04  0.280815709109E+04  0.271987263361E+04  0.263564624620E+04
  0.255528882770E+04  0.247861754732E+04  0.240545611399E+04  0.233563500517E+04  0.226899129832E+04
  0.220536906372E+04  0.214461894384E+04  0.208659836617E+04  0.203117116459E+04  0.197820762907E+04
  0.192758421339E+04  0.187918330496E+04  0.183289316740E+04  0.178860751561E+04  0.174622547321E+04
  0.170565123977E+04  0.166679387477E+04  0.162956712783E+04  0.159388913742E+04  0.155968229854E+04
  0.152687295694E+04  0.149539131517E+04  0.146517113125E+04  0.143614960309E+04  0.140826714320E+04
  0.138146724137E+04  0.135569624565E+04  0.133090328853E+04  0.130704003326E+04  0.128406061646E+04
  0.126192146457E+04  0.124058119752E+04  0.122000047748E+04  0.120014190289E+04  0.118096993904E+04
  0.116245070947E+04  0.114455206430E+04  0.112724331172E+04  0.111049525863E+04  0.109428008075E+04
  0.107857124288E+04  0.106334343301E+04  0.104857250099E+04  0.103423538552E+04  0.102031005579E+04
  0.100677546428E+04  0.993611464249E+03  0.980798796731E+03  0.968319018288E+03  0.956154462794E+03
  0.944288197584E+03  0.932703987846E+03  0.921386250306E+03  0.910320034280E+03  0.899490967002E+03
  0.888885240259E+03  0.878489571817E+03  0.868291180391E+03  0.858277759652E+03  0.848437454757E+03
  0.838758836207E+03  0.829230883385E+03  0.819842961154E+03  0.810584800920E+03  0.801446485362E+03
  0.792418430943E+03  0.783491372117E+03  0.774656348594E+03  0.765904691590E+03  0.757228010610E+03
  0.748618187700E+03  0.740067357380E+03  0.731567909025E+03  0.723112470383E+03  0.714693902498E+03
  0.706305294771E+03  0.697939957739E+03  0.689591418769E+03  0.681253415612E+03  0.672919897186E+03
  0.664585018928E+03  0.656243139532E+03  0.647888823651E+03  0.639516837880E+03  0.631122155719E+03
  0.622699954171E+03  0.614245621449E+03  0.605754755675E+03  0.597223171575E+03  0.588646905704E+03
  0.580022220479E+03  0.571345613389E+03  0.562613824520E+03  0.553823844819E+03  0.544972928578E+03
  0.536058603445E+03  0.527078684990E+03  0.518031290691E+03  0.508914856940E+03  0.499728156987E+03
  0.490470321391E+03  0.481140860077E+03  0.471739687482E+03  0.462267149155E+03  0.452724051853E+03
  0.443111696236E+03  0.433431912134E+03  0.423687097229E+03  0.413880258330E+03  0.404015055655E+03
  0.394095849204E+03  0.384127746847E+03  0.374116653058E+03  0.364069316718E+03  0.353993375557E+03
  0.343897394857E+03  0.333790896235E+03  0.323684371610E+03  0.313589276764E+03  0.303517997339E+03
  0.293483779479E+03  0.283500617247E+03  0.273583089273E+03  0.263746139230E+03  0.254004799921E+03
  0.244373867700E+03  0.234867546962E+03  0.225499102342E+03  0.216280579259E+03  0.207222683339E+03
  0.198334938387E+03  0.189626267045E+03  0.181106139683E+03  0.172786397289E+03  0.164683743051E+03
  0.156822696682E+03  0.149238512659E+03  0.141979276083E+03  0.135106030725E+03  0.128690094443E+03
  0.122806845573E+03  0.117526444388E+03  0.112902891113E+03  0.108963676977E+03  0.105702388745E+03
  0.103075953483E+03  0.101007112533E+03  0.993916714820E+02  0.981092936350E+02  0.970359575872E+02
  0.960556741682E+02  0.950690870108E+02  0.939975680292E+02  0.927830316949E+02  0.913850000989E+02
  0.897767604845E+02  0.879418989602E+02  0.858716939359E+02  0.835632827721E+02  0.810183425304E+02
  0.782420599708E+02  0.752422936752E+02  0.720289030651E+02  0.686132530404E+02  0.650078965712E+02
  0.612264237010E+02  0.572834514557E+02  0.531947214308E+02  0.489772703432E+02  0.446496349078E+02
  0.402320451758E+02  0.357465550807E+02  0.312170411572E+02  0.266689950661E+02  0.221290324283E+02
  0.176240761474E+02  0.131802547400E+02  0.882172716510E+01  0.456991306650E+01  0.443935820359E+00
 -0.353667196973E+01 -0.734613941197E+01 -0.109437654074E+02 -0.142650264686E+02 -0.172180880174E+02
 -0.196930607337E+02 -0.215885892351E+02 -0.228523539371E+02 -0.235209582102E+02 -0.237327685910E+02
 -0.236917710451E+02 -0.235940372730E+02 -0.235668826329E+02 -0.236592427512E+02 -0.238716831374E+02
 -0.241908341153E+02 -0.246084963930E+02 -0.251257616040E+02 -0.257495373604E+02 -0.264875244555E+02
 -0.273446310464E+02 -0.283215099218E+02 -0.294147254703E+02 -0.306177270591E+02 -0.319219838906E+02
 -0.333179270414E+02 -0.347955910069E+02 -0.363449781368E+02 -0.379562144387E+02 -0.396195694669E+02
 -0.413253906925E+02 -0.430639946520E+02 -0.448255300154E+02 -0.465998403746E+02 -0.483763288314E+02
 -0.501438525975E+02 -0.518906791370E+02 -0.536044869621E+02 -0.552725349392E+02 -0.568819441656E+02
 -0.584201607013E+02 -0.598755636752E+02 -0.612381188181E+02 -0.624999356012E+02 -0.636554338431E+02
 -0.647008238333E+02 -0.656326405276E+02 -0.664453881568E+02 -0.671290241158E+02 -0.676678996772E+02
 -0.680431536028E+02 -0.682392792278E+02 -0.682524503056E+02 -0.680954889488E+02 -0.677955136255E+02
 -0.673853815155E+02 -0.668944677303E+02 -0.663436194160E+02 -0.657448787186E+02 -0.651040859383E+02
 -0.644237265591E+02 -0.637049405940E+02 -0.629485813780E+02 -0.621556460862E+02 -0.613273991320E+02
 -0.604653910706E+02 -0.595714488689E+02 -0.586476747490E+02 -0.576964273476E+02 -0.567203097849E+02
 -0.557221320691E+02 -0.547048730026E+02 -0.536716054399E+02 -0.526254370276E+02 -0.515694285827E+02
 -0.505065032067E+02 -0.494393638705E+02 -0.483704080284E+02 -0.473016587724E+02 -0.462347231358E+02
 -0.451707827604E+02 -0.441106334427E+02 -0.430547715121E+02 -0.420035218311E+02 -0.409571910084E+02
 -0.399162245785E+02 -0.388813435855E+02 -0.378536420570E+02 -0.368346334192E+02 -0.358262425738E+02
 -0.348307470788E+02 -0.338506750682E+02 -0.328886696118E+02 -0.319473305437E+02 -0.310290465533E+02
 -0.301358329808E+02 -0.292691932192E+02 -0.284300220720E+02 -0.276185657803E+02 -0.268344453118E+02
 -0.260767384961E+02 -0.253441060550E+02 -0.246349399225E+02 -0.239475112687E+02 -0.232800998261E+02
 -0.226310932649E+02 -0.219990528767E+02 -0.213827477880E+02 -0.207811635135E+02 -0.201934920111E+02
 -0.196191101231E+02 -0.190575521142E+02 -0.185084805263E+02 -0.179716581486E+02 -0.174469227304E+02
 -0.169341651959E+02 -0.164333115416E+02 -0.159443082399E+02 -0.154671107878E+02 -0.150016749623E+02
 -0.145479503429E+02 -0.141058756896E+02
 core charge-density
  0.233347115022E-02  0.248219799624E-02  0.264038593777E-02  0.280863503225E-02  0.298758321888E-02
  0.317790869285E-02  0.338033242698E-02  0.359562084926E-02  0.382458868615E-02  0.406810198142E-02
  0.432708130139E-02  0.460250513757E-02  0.489541351888E-02  0.520691184584E-02  0.553817496015E-02
  0.589045146379E-02  0.626506830249E-02  0.666343562928E-02  0.708705196498E-02  0.753750967292E-02
  0.801650076673E-02  0.852582307081E-02  0.906738675393E-02  0.964322125829E-02  0.102554826466E-01
  0.109064613922E-01  0.115985906369E-01  0.123344549445E-01  0.131167995787E-01  0.139485403337E-01
  0.148327739515E-01  0.157727891574E-01  0.167720783496E-01  0.178343499791E-01  0.189635416595E-01
  0.201638340464E-01  0.214396655298E-01  0.227957477835E-01  0.242370822199E-01  0.257689773978E-01
  0.273970674358E-01  0.291273314856E-01  0.309661143201E-01  0.329201480978E-01  0.349965753630E-01
  0.372029733469E-01  0.395473796379E-01  0.420383192887E-01  0.446848334353E-01  0.474965095020E-01
  0.504835130714E-01  0.536566215009E-01  0.570272593702E-01  0.606075358466E-01  0.644102840581E-01
  0.684491025681E-01  0.727383990456E-01  0.772934362307E-01  0.821303802948E-01  0.872663516984E-01
  0.927194786522E-01  0.985089532868E-01  0.104655090641E+00  0.111179390573E+00  0.118104602717E+00
  0.125454794572E+00  0.133255422862E+00  0.141533408249E+00  0.150317213528E+00  0.159636925386E+00
  0.169524339853E+00  0.180013051514E+00  0.191138546590E+00  0.202938299969E+00  0.215451876258E+00
  0.228721034918E+00  0.242789839553E+00  0.257704771367E+00  0.273514846831E+00  0.290271739563E+00
  0.308029906391E+00  0.326846717578E+00  0.346782591133E+00  0.367901131101E+00  0.390269269725E+00
  0.413957413278E+00  0.439039591382E+00  0.465593609536E+00  0.493701204541E+00  0.523448202464E+00
  0.554924678687E+00  0.588225119556E+00  0.623448585031E+00  0.660698871681E+00  0.700084675265E+00
  0.741719752033E+00  0.785723077791E+00  0.832219003635E+00  0.881337407151E+00  0.933213837736E+00
  0.987989654521E+00  0.104581215529E+01  0.110683469451E+01  0.117121678856E+01  0.123912420585E+01
  0.131072903956E+01  0.138620976034E+01  0.146575124607E+01  0.154954478579E+01  0.163778805434E+01
  0.173068505418E+01  0.182844602062E+01  0.193128728635E+01  0.203943110088E+01  0.215310540022E+01
  0.227254352198E+01  0.239798386064E+01  0.252966945744E+01  0.266784751928E+01  0.281276886066E+01
  0.296468726232E+01  0.312385874026E+01  0.329054071859E+01  0.346499109940E+01  0.364746722289E+01
  0.383822471088E+01  0.403751618701E+01  0.424558986674E+01  0.446268801084E+01  0.468904523609E+01
  0.492488667747E+01  0.517042599658E+01  0.542586323191E+01  0.569138248711E+01  0.596714945500E+01
  0.625330877573E+01  0.654998122939E+01  0.685726076496E+01  0.717521136941E+01  0.750386378319E+01
  0.784321207062E+01  0.819321005691E+01  0.855376764640E+01  0.892474704034E+01  0.930595887631E+01
  0.969715831566E+01  0.100980411097E+02  0.105082396806E+02  0.109273192578E+02  0.113547741162E+02
  0.117900239690E+02  0.122324105720E+02  0.126811946049E+02  0.131355528988E+02  0.135945760871E+02
  0.140572667608E+02  0.145225382181E+02  0.149892138990E+02  0.154560276055E+02  0.159216246059E+02
  0.163845637305E+02  0.168433205626E+02  0.172962918320E+02  0.177418011150E+02  0.181781059414E+02
  0.186034064031E+02  0.190158553504E+02  0.194135702492E+02  0.197946467597E+02  0.201571740754E+02
  0.204992520430E+02  0.208190100537E+02  0.211146276701E+02  0.213843569146E+02  0.216265461107E+02
  0.218396651232E+02  0.220223317977E+02  0.221733393525E+02  0.222916844201E+02  0.223765953837E+02
  0.224275605975E+02  0.224443560244E+02  0.224270717703E+02  0.223761369410E+02  0.222923422048E+02
  0.221768593984E+02  0.220312574843E+02  0.218575141474E+02  0.216580223079E+02  0.214355908347E+02
  0.211934387711E+02  0.209351824232E+02  0.206648147327E+02  0.203866764393E+02  0.201054186523E+02
  0.198259565880E+02  0.195534143876E+02  0.192930611134E+02  0.190502382259E+02  0.188302790603E+02
  0.186384210591E+02  0.184797117572E+02  0.183589097495E+02  0.182803822076E+02  0.182480005993E+02
  0.182650366224E+02  0.183340606484E+02  0.184568450624E+02  0.186342751407E+02  0.188662702278E+02
  0.191517180373E+02  0.194884248879E+02  0.198730845777E+02  0.203012683948E+02  0.207674384427E+02
  0.212649860378E+02  0.217862964193E+02  0.223228404368E+02  0.228652932591E+02  0.234036794942E+02
  0.239275434054E+02  0.244261421482E+02  0.248886591512E+02  0.253044339396E+02  0.256632039048E+02
  0.259553527736E+02  0.261721598751E+02  0.263060437590E+02  0.263507933081E+02  0.263017792516E+02
  0.261561389266E+02  0.259129272953E+02  0.255732276124E+02  0.251402157766E+02  0.246191732904E+02
  0.240174449061E+02  0.233443384454E+02  0.226109659094E+02  0.218300268524E+02  0.210155369823E+02
  0.201825070572E+02  0.193465792591E+02  0.185236302548E+02  0.177293519865E+02  0.169788227176E+02
  0.162860818706E+02  0.156637225784E+02  0.151225155530E+02  0.146710768219E+02  0.143155906635E+02
  0.140595967614E+02  0.139038503587E+02  0.138462633820E+02  0.138819332650E+02  0.140032683126E+02
  0.142002123084E+02  0.144605628812E+02  0.147703661753E+02  0.151143637760E+02  0.154764700788E+02
  0.158402640567E+02  0.161894822928E+02  0.165084994143E+02  0.167827803391E+02  0.169992880232E+02
  0.171468314101E+02  0.172163408970E+02  0.172010623507E+02  0.170966650590E+02  0.169012633456E+02
  0.166153556355E+02  0.162416882258E+02  0.157850538027E+02  0.152520367634E+02  0.146507186495E+02
  0.139903575061E+02  0.132810547683E+02  0.125334225221E+02  0.117582626680E+02  0.109662679595E+02
  0.101677529735E+02  0.937242114317E+01  0.858917231196E+01  0.782595265889E+01  0.708964819638E+01
  0.638602066149E+01  0.571968384476E+01  0.509411691599E+01  0.451170981162E+01  0.397383625717E+01
  0.348094789054E+01  0.303268317013E+01  0.262798456538E+01  0.226521800351E+01  0.194228970073E+01
  0.165675725991E+01  0.140593377645E+01  0.118698477024E+01  0.997017339742E+00  0.833159392744E+00
  0.692625453128E+00  0.572767292331E+00  0.471107805186E+00  0.385360305466E+00  0.313437400471E+00
  0.253451723117E+00  0.203711211889E+00  0.162710693569E+00  0.129121010586E+00  0.101776609421E+00
  0.796622930107E-01  0.618996806998E-01  0.477337869701E-01  0.365200176660E-01  0.277117891071E-01
  0.208489015311E-01  0.155467424512E-01  0.114863554853E-01  0.840538232380E-02  0.608986718530E-02
  0.436690064696E-02  0.309807144818E-02  0.217368867312E-02  0.150773176296E-02  0.103348150522E-02
  0.699781386377E-03  0.467875601388E-03  0.308767798062E-03  0.201043532453E-03  0.129099560764E-03
  0.817245285825E-04  0.509782585048E-04  0.313205041991E-04  0.189444968809E-04  0.112755896553E-04
  0.660053608659E-05  0.379816933254E-05  0.214725961633E-05  0.119194911443E-05  0.649275564988E-06
  0.346833657428E-06  0.181570188687E-06  0.930888097710E-07  0.467054387259E-07  0.229156227525E-07
  0.109864617440E-07  0.514286330779E-08  0.234867929426E-08  0.104557837096E-08  0.453354503961E-09
  0.191290583853E-09  0.784766415488E-10  0.312741548462E-10  0.120955583502E-10  0.453572841124E-11
  0.164748908891E-11  0.579046173683E-12  0.196727964981E-12  0.645377660077E-13  0.204208658028E-13
  0.622512818218E-14  0.182608606554E-14  0.514826036349E-15  0.139320671753E-15  0.361424164269E-16
  0.897587451192E-17  0.213101089599E-17
 kinetic energy-density
  0.420695327584E+04  0.422408263221E+04  0.424203250696E+04  0.426082975501E+04  0.428050230181E+04
  0.430107913920E+04  0.432259035127E+04  0.434506734174E+04  0.436854275636E+04  0.439305069188E+04
  0.441862664235E+04  0.444530767552E+04  0.447313266731E+04  0.450214210225E+04  0.453237834944E+04
  0.456388588250E+04  0.459671139339E+04  0.463090323733E+04  0.466651269126E+04  0.470359344922E+04
  0.474220136377E+04  0.478239564979E+04  0.482423788732E+04  0.486779277907E+04  0.491312834479E+04
  0.496031581942E+04  0.500942965906E+04  0.506054833416E+04  0.511375383746E+04  0.516913210591E+04
  0.522677328955E+04  0.528677179470E+04  0.534922662661E+04  0.541424139386E+04  0.548192477099E+04
  0.555239050549E+04  0.562575782907E+04  0.570215164504E+04  0.578170281023E+04  0.586454842311E+04
  0.595083214947E+04  0.604070453687E+04  0.613432335937E+04  0.623185398013E+04  0.633346974395E+04
  0.643935237802E+04  0.654969242357E+04  0.666468968917E+04  0.678455372899E+04  0.690950434552E+04
  0.703977212209E+04  0.717559898040E+04  0.731723878058E+04  0.746495788725E+04  0.761903592732E+04
  0.777976636593E+04  0.794745727160E+04  0.812243206405E+04  0.830503033248E+04  0.849560861457E+04
  0.869454127353E+04  0.890222152155E+04  0.911906218351E+04  0.934549685460E+04  0.958198087313E+04
  0.982899247630E+04  0.100870338516E+05  0.103566323940E+05  0.106383420243E+05  0.109327443218E+05
  0.112404500569E+05  0.115621004825E+05  0.118983689077E+05  0.122499621506E+05  0.126176221712E+05
  0.130021277531E+05  0.134042961676E+05  0.138249850019E+05  0.142650939692E+05  0.147255668431E+05
  0.152073934025E+05  0.157116114707E+05  0.162393090225E+05  0.167916262860E+05  0.173697580104E+05
  0.179749556412E+05  0.186085297085E+05  0.192718521065E+05  0.199663585490E+05  0.206935509168E+05
  0.214549997947E+05  0.222523468539E+05  0.230873073895E+05  0.239616727632E+05  0.248773129601E+05
  0.258361787827E+05  0.268403045050E+05  0.278918101020E+05  0.289929034178E+05  0.301458825246E+05
  0.313531374121E+05  0.326171522399E+05  0.339405067735E+05  0.353258779186E+05  0.367760409578E+05
  0.382938705987E+05  0.398823414195E+05  0.415445282469E+05  0.432836059467E+05  0.451028486981E+05
  0.470056290550E+05  0.489954159343E+05  0.510757722645E+05  0.532503519582E+05  0.555228958513E+05
  0.578972269235E+05  0.603772445858E+05  0.629669176821E+05  0.656702767535E+05  0.684914046370E+05
  0.714344260910E+05  0.745034956657E+05  0.777027843115E+05  0.810364640988E+05  0.845086913308E+05
  0.881235876709E+05  0.918852192918E+05  0.957975740392E+05  0.998645361159E+05  0.104089858716E+06
  0.108477134065E+06  0.113029760953E+06  0.117750909715E+06  0.122643484540E+06  0.127710082709E+06
  0.132952951949E+06  0.138373943484E+06  0.143974463918E+06  0.149755423192E+06  0.155717180137E+06
  0.161859485730E+06  0.168181423248E+06  0.174681346879E+06  0.181356817416E+06  0.188204536818E+06
  0.195220281162E+06  0.202398832128E+06  0.209733908939E+06  0.217218098825E+06  0.224842789796E+06
  0.232598103295E+06  0.240472829959E+06  0.248454367975E+06  0.256528665566E+06  0.264680168551E+06
  0.272891774116E+06  0.281144791998E+06  0.289418914639E+06  0.297692197112E+06  0.305941049166E+06
  0.314140239817E+06  0.322262917105E+06  0.330280643521E+06  0.338163449501E+06  0.345879905934E+06
  0.353397217377E+06  0.360681337192E+06  0.367697105956E+06  0.374408414064E+06  0.380778389355E+06
  0.386769610467E+06  0.392344345989E+06  0.397464819574E+06  0.402093500185E+06  0.406193416949E+06
  0.409728496822E+06  0.412663923363E+06  0.414966513908E+06  0.416605112111E+06  0.417550992047E+06
  0.417778269423E+06  0.417264314924E+06  0.415990164037E+06  0.413940917014E+06  0.411106122271E+06
  0.407480135993E+06  0.403062450233E+06  0.397857981820E+06  0.391877313984E+06  0.385136882938E+06
  0.377659101835E+06  0.369472414991E+06  0.360611276058E+06  0.351116044870E+06  0.341032798747E+06
  0.330413055690E+06  0.319313408486E+06  0.307795070353E+06  0.295923334764E+06  0.283766953610E+06
  0.271397439337E+06  0.258888297554E+06  0.246314210093E+06  0.233750120000E+06  0.221270365156E+06
  0.208947700122E+06  0.196852352304E+06  0.185051082400E+06  0.173606281336E+06  0.162575128203E+06
  0.152008832002E+06  0.141951976134E+06  0.132441979739E+06  0.123508685181E+06  0.115174077085E+06
  0.107452135402E+06  0.100348822865E+06  0.938622057753E+05  0.879827056686E+05  0.826934781528E+05
  0.779709130901E+05  0.737852479336E+05  0.701012832464E+05  0.668791863658E+05  0.640753667868E+05
  0.616434046477E+05  0.595350121614E+05  0.577010070398E+05  0.560922770774E+05  0.546607151034E+05
  0.533601049128E+05  0.521469399930E+05  0.509811588339E+05  0.498267823054E+05  0.486524413222E+05
  0.474317848545E+05  0.461437612014E+05  0.447727676548E+05  0.433086666229E+05  0.417466687081E+05
  0.400870866937E+05  0.383349673256E+05  0.364996119521E+05  0.345940009202E+05  0.326341408646E+05
  0.306383576403E+05  0.286265593150E+05  0.266194926909E+05  0.246380145396E+05  0.227023827956E+05
  0.208316013584E+05  0.190427840155E+05  0.173506447852E+05  0.157670571352E+05  0.143007924840E+05
  0.129574310713E+05  0.117394408553E+05  0.106463783537E+05  0.967515855472E+04  0.882036531257E+04
  0.807459852573E+04  0.742885888993E+04  0.687296247042E+04  0.639596929569E+04  0.598660716113E+04
  0.563367235488E+04  0.532639108708E+04  0.505472818912E+04  0.480963337057E+04  0.458321931891E+04
  0.436887027699E+04  0.416128388067E+04  0.395645244209E+04  0.375159246762E+04  0.354503308241E+04
  0.333607454536E+04  0.312482824417E+04  0.291204855155E+04  0.269896584175E+04  0.248712814671E+04
  0.227825729039E+04  0.207412335666E+04  0.187643966648E+04  0.168677983883E+04  0.150651523295E+04
  0.133677302529E+04  0.117841055930E+04  0.103200909177E+04  0.897877533469E+03  0.776069395019E+03
  0.666408278434E+03  0.568519964666E+03  0.481868587866E+03  0.405794173434E+03  0.339548717417E+03
  0.282328287626E+03  0.233299713939E+03  0.191622209213E+03  0.156465766655E+03  0.127028174115E+03
  0.102551206365E+03  0.823325128963E+02  0.657365405909E+02  0.521969006165E+02  0.412163253245E+02
  0.323633450453E+02  0.252673232766E+02  0.196127244028E+02  0.151331450147E+02  0.116054213101E+02
  0.884400329499E+01  0.669571527493E+01  0.503497509434E+01  0.375950773905E+01  0.278656100787E+01
  0.204960901643E+01  0.149551436756E+01  0.108211036564E+01  0.776159831881E+00  0.551645882598E+00
  0.388351205254E+00  0.270685260491E+00  0.186722513256E+00  0.127418894591E+00  0.859777697225E-01
  0.573405290976E-01  0.377804321698E-01  0.245814514331E-01  0.157866054737E-01  0.100026632394E-01
  0.625018444720E-02  0.384967436722E-02  0.233620464972E-02  0.139621393761E-02  0.821373674539E-03
  0.475405326394E-03  0.270582525042E-03  0.151361433537E-03  0.831697705768E-04  0.448633626112E-04
  0.237421896330E-04  0.123186705440E-04  0.626206551502E-05  0.311648057006E-05  0.151730731778E-05
  0.722108623566E-06  0.335659217367E-06  0.152264908942E-06  0.673497931318E-07  0.290221958967E-07
  0.121729750340E-07  0.496526955393E-08  0.196773899316E-08  0.756938568906E-09  0.282359419336E-09
  0.102037916935E-09  0.356858337929E-10  0.120656171474E-10  0.393961103011E-11  0.124086133563E-11
  0.376582122339E-12  0.109988362904E-12  0.308781489729E-13  0.832189488235E-14  0.215025494532E-14
  0.531943366385E-15  0.125817033358E-15
 mkinetic energy-density pseudized
  0.225631471324E-05  0.240543996370E-05  0.256442125951E-05  0.273391001031E-05  0.291460067898E-05
  0.310723362713E-05  0.331259814860E-05  0.353153570358E-05  0.376494336637E-05  0.401377750105E-05
  0.427905768009E-05  0.456187086194E-05  0.486337584476E-05  0.518480801439E-05  0.552748440634E-05
  0.589280910210E-05  0.628227898227E-05  0.669748985985E-05  0.714014301895E-05  0.761205218560E-05
  0.811515095930E-05  0.865150073575E-05  0.922329915322E-05  0.983288909710E-05  0.104827682997E-04
  0.111755995743E-04  0.119142217260E-04  0.127016611831E-04  0.135411443979E-04  0.144361110665E-04
  0.153902282226E-04  0.164074052631E-04  0.174918099658E-04  0.186478855673E-04  0.198803689678E-04
  0.211943101406E-04  0.225950928235E-04  0.240884565786E-04  0.256805203086E-04  0.273778073295E-04
  0.291872720979E-04  0.311163287074E-04  0.331728812660E-04  0.353653562826E-04  0.377027371941E-04
  0.401946011734E-04  0.428511583711E-04  0.456832937503E-04  0.487026116865E-04  0.519214835152E-04
  0.553530982219E-04  0.590115164826E-04  0.629117282753E-04  0.670697143001E-04  0.715025114577E-04
  0.762282826564E-04  0.812663912319E-04  0.866374802865E-04  0.923635572712E-04  0.984680841585E-04
  0.104976073575E-03  0.111914191285E-03  0.119310865456E-03  0.127196403129E-03  0.135603114409E-03
  0.144565444840E-03  0.154120116550E-03  0.164306278705E-03  0.175165667927E-03  0.186742779292E-03
  0.199085048653E-03  0.212243046990E-03  0.226270687623E-03  0.241225447108E-03  0.257168600742E-03
  0.274165473621E-03  0.292285708303E-03  0.311603550148E-03  0.332198151531E-03  0.354153896147E-03
  0.377560744757E-03  0.402514603780E-03  0.429117718251E-03  0.457479090741E-03  0.487714927973E-03
  0.519949116944E-03  0.554313732520E-03  0.590949578578E-03  0.630006764905E-03  0.671645322230E-03
  0.716035857897E-03  0.763360254873E-03  0.813812416949E-03  0.867599063190E-03  0.924940574889E-03
  0.986071898487E-03  0.105124350817E-02  0.112072243209E-02  0.119479334634E-02  0.127375974135E-02
  0.135794516523E-02  0.144769454932E-02  0.154337562143E-02  0.164538041227E-02  0.175412686166E-02
  0.187006053066E-02  0.199365642702E-02  0.212542095113E-02  0.226589397059E-02  0.241565103189E-02
  0.257530571819E-02  0.274551216290E-02  0.292696772936E-02  0.312041586755E-02  0.332664915951E-02
  0.354651256610E-02  0.378090688806E-02  0.403079245595E-02  0.429719306367E-02  0.458120016201E-02
  0.488397732906E-02  0.520676503606E-02  0.555088572802E-02  0.591774923990E-02  0.630885857056E-02
  0.672581603815E-02  0.717032984184E-02  0.764422105714E-02  0.814943109299E-02  0.868802964140E-02
  0.926222315199E-02  0.987436386605E-02  0.105269594471E-01  0.112226832473E-01  0.119643852514E-01
  0.127551037434E-01  0.135980777429E-01  0.144967602625E-01  0.154548324399E-01  0.164762186026E-01
  0.175651023267E-01  0.187259435545E-01  0.199634968418E-01  0.212828308087E-01  0.226893488725E-01
  0.241888113483E-01  0.257873590058E-01  0.274915381795E-01  0.293083275335E-01  0.312451665892E-01
  0.333099861331E-01  0.355112406268E-01  0.378579427508E-01  0.403597002232E-01  0.430267550399E-01
  0.458700252983E-01  0.489011497702E-01  0.521325354068E-01  0.555774079649E-01  0.592498659602E-01
  0.631649381642E-01  0.673386448749E-01  0.717880632097E-01  0.765313966794E-01  0.815880493238E-01
  0.869787047051E-01  0.927254100735E-01  0.988516660410E-01  0.105382522119E+00  0.112344678503E+00
  0.119766594498E+00  0.127678604023E+00  0.136113038647E+00  0.145104358637E+00  0.154689292530E+00
  0.164906985785E+00  0.175799159079E+00  0.187410276874E+00  0.199787726904E+00  0.212982011260E+00
  0.227046949828E+00  0.242039896842E+00  0.258021971372E+00  0.275058302629E+00  0.293218291001E+00
  0.312575885795E+00  0.333209880713E+00  0.355204228161E+00  0.378648373520E+00  0.403637610610E+00
  0.430273459611E+00  0.458664068789E+00  0.488924641438E+00  0.521177889536E+00  0.555554515653E+00
  0.592193724766E+00  0.631243767680E+00  0.672862517849E+00  0.717218083463E+00  0.764489456735E+00
  0.814867202427E+00  0.868554187685E+00  0.925766355366E+00  0.986733543082E+00  0.105170035024E+01
  0.112092705548E+01  0.119469058677E+01  0.127328554678E+01  0.135702529581E+01  0.144624309472E+01
  0.154129331043E+01  0.164255268619E+01  0.175042167900E+01  0.186532586636E+01  0.198771742440E+01
  0.211807667910E+01  0.225691373236E+01  0.240477016395E+01  0.256222081035E+01  0.272987562068E+01
  0.290838158958E+01  0.309842476597E+01  0.330073233592E+01  0.351607477686E+01  0.374526807897E+01
  0.398917602853E+01  0.424871254617E+01  0.452484407110E+01  0.481859198037E+01  0.513103502963E+01
  0.546331179890E+01  0.581662312383E+01  0.619223448883E+01  0.659147835447E+01  0.701575638648E+01
  0.746654154822E+01  0.794538001209E+01  0.845389283867E+01  0.899377736374E+01  0.956680822518E+01
  0.101748379510E+02  0.108197970190E+02  0.115036932864E+02  0.122286106727E+02  0.129967069654E+02
  0.138102106005E+02  0.146714162510E+02  0.155826790371E+02  0.165464071502E+02  0.175650526571E+02
  0.186411002294E+02  0.197770535118E+02  0.209754188178E+02  0.222386858107E+02  0.235693047970E+02
  0.249696602288E+02  0.264420399834E+02  0.279885999551E+02  0.296113234731E+02  0.313119750322E+02
  0.330920478093E+02  0.349527044279E+02  0.368947104382E+02  0.389183599934E+02  0.410233932408E+02
  0.432089050031E+02  0.454732444156E+02  0.478139053032E+02  0.502274072546E+02  0.527091675656E+02
  0.552533645069E+02  0.578527927266E+02  0.604987120399E+02  0.631806913933E+02  0.658864504447E+02
  0.686017019740E+02  0.713099992489E+02  0.739925935312E+02  0.766283081180E+02  0.791934366818E+02
  0.816616751838E+02  0.840040982824E+02  0.861891928959E+02  0.881829633621E+02  0.899491243810E+02
  0.914493995156E+02  0.926439443138E+02  0.934919138833E+02  0.939521947466E+02  0.939843196897E+02
  0.935495816891E+02  0.926123583629E+02  0.911416511906E+02  0.891128333254E+02  0.865095855057E+02
  0.833259806533E+02  0.795686535578E+02  0.752589620900E+02  0.704350103882E+02  0.651533626424E+02
  0.594902293175E+02  0.535418577786E+02  0.474238094897E+02  0.412687611823E+02  0.352224347514E+02
  0.294372498537E+02  0.240633169161E+02  0.192364622517E+02  0.150631197689E+02  0.116021558822E+02
  0.884400329499E+01  0.669571527493E+01  0.503497509434E+01  0.375950773905E+01  0.278656100787E+01
  0.204960901643E+01  0.149551436756E+01  0.108211036564E+01  0.776159831881E+00  0.551645882598E+00
  0.388351205254E+00  0.270685260491E+00  0.186722513256E+00  0.127418894591E+00  0.859777697225E-01
  0.573405290976E-01  0.377804321698E-01  0.245814514331E-01  0.157866054737E-01  0.100026632394E-01
  0.625018444720E-02  0.384967436722E-02  0.233620464972E-02  0.139621393761E-02  0.821373674539E-03
  0.475405326394E-03  0.270582525042E-03  0.151361433537E-03  0.831697705768E-04  0.448633626112E-04
  0.237421896330E-04  0.123186705440E-04  0.626206551502E-05  0.311648057006E-05  0.151730731778E-05
  0.722108623566E-06  0.335659217367E-06  0.152264908942E-06  0.673497931318E-07  0.290221958967E-07
  0.121729750340E-07  0.496526955393E-08  0.196773899316E-08  0.756938568906E-09  0.282359419336E-09
  0.102037916935E-09  0.356858337929E-10  0.120656171474E-10  0.393961103011E-11  0.124086133563E-11
  0.376582122339E-12  0.109988362904E-12  0.308781489729E-13  0.832189488235E-14  0.215025494532E-14
  0.531943366385E-15  0.125817033358E-15
 local pseudopotential core
 -0.105433521898E+03 -0.105432122131E+03 -0.105430766453E+03 -0.105429453477E+03 -0.105428181857E+03
 -0.105426950292E+03 -0.105425757520E+03 -0.105424602321E+03 -0.105423483512E+03 -0.105422399948E+03
 -0.105421350518E+03 -0.105420334149E+03 -0.105419349800E+03 -0.105418396463E+03 -0.105417473163E+03
 -0.105416578954E+03 -0.105415712921E+03 -0.105414874178E+03 -0.105414061866E+03 -0.105413275155E+03
 -0.105412513238E+03 -0.105411775336E+03 -0.105411060694E+03 -0.105410368582E+03 -0.105409698290E+03
 -0.105409049134E+03 -0.105408420449E+03 -0.105407811593E+03 -0.105407221943E+03 -0.105406650896E+03
 -0.105406097868E+03 -0.105405562295E+03 -0.105405043629E+03 -0.105404541340E+03 -0.105404054916E+03
 -0.105403583859E+03 -0.105403127690E+03 -0.105402685942E+03 -0.105402258165E+03 -0.105401843922E+03
 -0.105401442793E+03 -0.105401054368E+03 -0.105400678252E+03 -0.105400314062E+03 -0.105399961428E+03
 -0.105399619992E+03 -0.105399289407E+03 -0.105398969338E+03 -0.105398659460E+03 -0.105398359461E+03
 -0.105398069037E+03 -0.105397787894E+03 -0.105397515750E+03 -0.105397252330E+03 -0.105396997370E+03
 -0.105396750614E+03 -0.105396511816E+03 -0.105396280737E+03 -0.105396057147E+03 -0.105395840825E+03
 -0.105395631556E+03 -0.105395429133E+03 -0.105395233360E+03 -0.105395044043E+03 -0.105394861000E+03
 -0.105394684052E+03 -0.105394513031E+03 -0.105394347772E+03 -0.105394188119E+03 -0.105394033922E+03
 -0.105393885038E+03 -0.105393741329E+03 -0.105393602665E+03 -0.105393468920E+03 -0.105393339977E+03
 -0.105393215724E+03 -0.105393096053E+03 -0.105392980865E+03 -0.105392870067E+03 -0.105392763570E+03
 -0.105392661292E+03 -0.105392563158E+03 -0.105392469098E+03 -0.105392379048E+03 -0.105392292953E+03
 -0.105392210761E+03 -0.105392132428E+03 -0.105392057916E+03 -0.105391987195E+03 -0.105391920241E+03
 -0.105391857036E+03 -0.105391797572E+03 -0.105391741846E+03 -0.105391689863E+03 -0.105391641637E+03
 -0.105391597191E+03 -0.105391556554E+03 -0.105391519765E+03 -0.105391486873E+03 -0.105391457937E+03
 -0.105391433025E+03 -0.105391412215E+03 -0.105391395599E+03 -0.105391383277E+03 -0.105391375363E+03
 -0.105391371985E+03 -0.105391373283E+03 -0.105391379412E+03 -0.105391390541E+03 -0.105391406857E+03
 -0.105391428561E+03 -0.105391455874E+03 -0.105391489037E+03 -0.105391528306E+03 -0.105391573964E+03
 -0.105391626313E+03 -0.105391685679E+03 -0.105391752413E+03 -0.105391826896E+03 -0.105391909532E+03
 -0.105392000761E+03 -0.105392101050E+03 -0.105392210903E+03 -0.105392330860E+03 -0.105392461498E+03
 -0.105392603438E+03 -0.105392757341E+03 -0.105392923918E+03 -0.105393103927E+03 -0.105393298179E+03
 -0.105393507541E+03 -0.105393732941E+03 -0.105393975369E+03 -0.105394235883E+03 -0.105394515613E+03
 -0.105394815766E+03 -0.105395137631E+03 -0.105395482583E+03 -0.105395852090E+03 -0.105396247721E+03
 -0.105396671146E+03 -0.105397124151E+03 -0.105397608640E+03 -0.105398126645E+03 -0.105398680331E+03
 -0.105399272012E+03 -0.105399904154E+03 -0.105400579385E+03 -0.105401300512E+03 -0.105402070527E+03
 -0.105402892619E+03 -0.105403770192E+03 -0.105404706873E+03 -0.105405706532E+03 -0.105406773295E+03
 -0.105407911559E+03 -0.105409126016E+03 -0.105410421666E+03 -0.105411803841E+03 -0.105413278226E+03
 -0.105414850882E+03 -0.105416528268E+03 -0.105418317275E+03 -0.105420225245E+03 -0.105422260007E+03
 -0.105424429906E+03 -0.105426743839E+03 -0.105429211289E+03 -0.105431842366E+03 -0.105434647845E+03
 -0.105437639212E+03 -0.105440828712E+03 -0.105444229394E+03 -0.105447855168E+03 -0.105451720861E+03
 -0.105455842274E+03 -0.105460236249E+03 -0.105464920736E+03 -0.105469914864E+03 -0.105475239021E+03
 -0.105480914933E+03 -0.105486965754E+03 -0.105493416156E+03 -0.105500292433E+03 -0.105507622598E+03
 -0.105515436505E+03 -0.105523765960E+03 -0.105532644852E+03 -0.105542109285E+03 -0.105552197725E+03
 -0.105562951148E+03 -0.105574413206E+03 -0.105586630395E+03 -0.105599652242E+03 -0.105613531495E+03
 -0.105628324331E+03 -0.105644090575E+03 -0.105660893933E+03 -0.105678802234E+03 -0.105697887699E+03
 -0.105718227208E+03 -0.105739902604E+03 -0.105763000994E+03 -0.105787615086E+03 -0.105813843533E+03
 -0.105841791303E+03 -0.105871570066E+03 -0.105903298610E+03 -0.105937103272E+03 -0.105973118396E+03
 -0.106011486818E+03 -0.106052360375E+03 -0.106095900439E+03 -0.106142278478E+03 -0.106191676653E+03
 -0.106244288432E+03 -0.106300319243E+03 -0.106359987151E+03 -0.106423523570E+03 -0.106491174000E+03
 -0.106563198798E+03 -0.106639873976E+03 -0.106721492031E+03 -0.106808362799E+03 -0.106900814337E+03
 -0.106999193825E+03 -0.107103868497E+03 -0.107215226578E+03 -0.107333678244E+03 -0.107459656584E+03
 -0.107593618559E+03 -0.107736045967E+03 -0.107887446377E+03 -0.108048354045E+03 -0.108219330790E+03
 -0.108400966809E+03 -0.108593881432E+03 -0.108798723776E+03 -0.109016173290E+03 -0.109246940159E+03
 -0.109491765543E+03 -0.109751421612E+03 -0.110026711336E+03 -0.110318468002E+03 -0.110627554395E+03
 -0.110954861592E+03 -0.111301307321E+03 -0.111667833795E+03 -0.112055404972E+03 -0.112465003138E+03
 -0.112897624733E+03 -0.113354275320E+03 -0.113835963576E+03 -0.114343694203E+03 -0.114878459613E+03
 -0.115441230260E+03 -0.116032943454E+03 -0.116654490508E+03 -0.117306702047E+03 -0.117990331283E+03
 -0.118706035085E+03 -0.119454352637E+03 -0.120235681487E+03 -0.121050250778E+03 -0.121898091460E+03
 -0.122779003284E+03 -0.123692518377E+03 -0.124637861229E+03 -0.125613904933E+03 -0.126619123531E+03
 -0.127651540402E+03 -0.128708672610E+03 -0.129787471257E+03 -0.130884257895E+03 -0.131994657205E+03
 -0.133113526187E+03 -0.134234880321E+03 -0.135351817225E+03 -0.136456438621E+03 -0.137539771570E+03
 -0.138591690288E+03 -0.139600840168E+03 -0.140554566079E+03 -0.141438847584E+03 -0.142238244377E+03
 -0.142935856167E+03 -0.143513302372E+03 -0.143950728420E+03 -0.144226847408E+03 -0.144319028201E+03
 -0.144203444132E+03 -0.143855300200E+03 -0.143249161148E+03 -0.142359408102E+03 -0.141160857071E+03
 -0.139629578317E+03 -0.137743960003E+03 -0.135486061029E+03 -0.132843293523E+03 -0.129810460959E+03
 -0.126392147542E+03 -0.122605401653E+03 -0.118482573975E+03 -0.114074055312E+03 -0.109450513337E+03
 -0.104704068236E+03 -0.999477123486E+02 -0.953122302876E+02 -0.909399944251E+02 -0.869753709874E+02
 -0.835524507025E+02 -0.808097814864E+02 -0.788303321953E+02 -0.774494917562E+02 -0.749971382907E+02
 -0.726312856517E+02 -0.703410180947E+02 -0.681236805946E+02 -0.659767660635E+02 -0.638978983728E+02
 -0.618848145980E+02 -0.599353551746E+02 -0.580474490808E+02 -0.562191103967E+02 -0.544484301560E+02
 -0.527335670512E+02 -0.510727462780E+02 -0.494642540857E+02 -0.479064341071E+02 -0.463976852152E+02
 -0.449364582117E+02 -0.435212540222E+02 -0.421506216209E+02 -0.408231562833E+02 -0.395374978267E+02
 -0.382923292206E+02 -0.370863750328E+02 -0.359184001640E+02 -0.347872084619E+02 -0.336916414622E+02
 -0.326305773532E+02 -0.316029295204E+02 -0.306076456675E+02 -0.296437066081E+02 -0.287101252461E+02
 -0.278059455589E+02 -0.269302416144E+02 -0.260821166281E+02 -0.252607020470E+02 -0.244651566632E+02
 -0.236946657558E+02 -0.229484402608E+02 -0.222257159640E+02 -0.215257527203E+02 -0.208478336962E+02
 -0.201912646360E+02 -0.195553731508E+02 -0.189395080293E+02 -0.183430385710E+02 -0.177653539395E+02
 -0.172058625369E+02 -0.166639913974E+02 -0.161391856004E+02 -0.156309077021E+02 -0.151386371848E+02
 -0.146618699235E+02 -0.142001176703E+02
 pspotential valence only
 -0.716922695033E+02 -0.716908696766E+02 -0.716895139347E+02 -0.716882008900E+02 -0.716869291976E+02
 -0.716856975549E+02 -0.716845047012E+02 -0.716833494145E+02 -0.716822305117E+02 -0.716811468471E+02
 -0.716800973108E+02 -0.716790808282E+02 -0.716780963581E+02 -0.716771428923E+02 -0.716762194547E+02
 -0.716753250992E+02 -0.716744589103E+02 -0.716736200004E+02 -0.716728075111E+02 -0.716720206100E+02
 -0.716712584910E+02 -0.716705203738E+02 -0.716698055026E+02 -0.716691131454E+02 -0.716684425930E+02
 -0.716677931588E+02 -0.716671641776E+02 -0.716665550055E+02 -0.716659650183E+02 -0.716653936121E+02
 -0.716648402016E+02 -0.716643042201E+02 -0.716637851189E+02 -0.716632823660E+02 -0.716627954469E+02
 -0.716623238629E+02 -0.716618671311E+02 -0.716614247835E+02 -0.716609963674E+02 -0.716605814440E+02
 -0.716601795882E+02 -0.716597903889E+02 -0.716594134472E+02 -0.716590483773E+02 -0.716586948050E+02
 -0.716583523686E+02 -0.716580207174E+02 -0.716576995116E+02 -0.716573884224E+02 -0.716570871311E+02
 -0.716567953294E+02 -0.716565127183E+02 -0.716562390086E+02 -0.716559739198E+02 -0.716557171805E+02
 -0.716554685280E+02 -0.716552277076E+02 -0.716549944727E+02 -0.716547685845E+02 -0.716545498116E+02
 -0.716543379302E+02 -0.716541327233E+02 -0.716539339807E+02 -0.716537414990E+02 -0.716535550812E+02
 -0.716533745364E+02 -0.716531996798E+02 -0.716530303323E+02 -0.716528663207E+02 -0.716527074770E+02
 -0.716525536387E+02 -0.716524046484E+02 -0.716522603535E+02 -0.716521206064E+02 -0.716519852640E+02
 -0.716518541881E+02 -0.716517272443E+02 -0.716516043028E+02 -0.716514852380E+02 -0.716513699280E+02
 -0.716512582549E+02 -0.716511501045E+02 -0.716510453663E+02 -0.716509439333E+02 -0.716508457016E+02
 -0.716507505711E+02 -0.716506584445E+02 -0.716505692277E+02 -0.716504828297E+02 -0.716503991623E+02
 -0.716503181401E+02 -0.716502396804E+02 -0.716501637034E+02 -0.716500901316E+02 -0.716500188901E+02
 -0.716499499063E+02 -0.716498831101E+02 -0.716498184336E+02 -0.716497558110E+02 -0.716496951789E+02
 -0.716496364757E+02 -0.716495796421E+02 -0.716495246204E+02 -0.716494713550E+02 -0.716494197923E+02
 -0.716493698802E+02 -0.716493215686E+02 -0.716492748089E+02 -0.716492295542E+02 -0.716491857594E+02
 -0.716491433806E+02 -0.716491023758E+02 -0.716490627043E+02 -0.716490243268E+02 -0.716489872056E+02
 -0.716489513042E+02 -0.716489165875E+02 -0.716488830219E+02 -0.716488505749E+02 -0.716488192153E+02
 -0.716487889132E+02 -0.716487596400E+02 -0.716487313681E+02 -0.716487040713E+02 -0.716486777244E+02
 -0.716486523035E+02 -0.716486277858E+02 -0.716486041497E+02 -0.716485813745E+02 -0.716485594409E+02
 -0.716485383306E+02 -0.716485180264E+02 -0.716484985123E+02 -0.716484797733E+02 -0.716484617956E+02
 -0.716484445665E+02 -0.716484280746E+02 -0.716484123095E+02 -0.716483972619E+02 -0.716483829238E+02
 -0.716483692886E+02 -0.716483563506E+02 -0.716483441055E+02 -0.716483325505E+02 -0.716483216837E+02
 -0.716483115051E+02 -0.716483020157E+02 -0.716482932182E+02 -0.716482851168E+02 -0.716482777171E+02
 -0.716482710265E+02 -0.716482650541E+02 -0.716482598107E+02 -0.716482553092E+02 -0.716482515641E+02
 -0.716482485922E+02 -0.716482464123E+02 -0.716482450455E+02 -0.716482445154E+02 -0.716482448477E+02
 -0.716482460711E+02 -0.716482482170E+02 -0.716482513196E+02 -0.716482554161E+02 -0.716482605472E+02
 -0.716482667568E+02 -0.716482740926E+02 -0.716482826060E+02 -0.716482923526E+02 -0.716483033921E+02
 -0.716483157892E+02 -0.716483296128E+02 -0.716483449376E+02 -0.716483618431E+02 -0.716483804150E+02
 -0.716484007451E+02 -0.716484229313E+02 -0.716484470788E+02 -0.716484732999E+02 -0.716485017146E+02
 -0.716485324512E+02 -0.716485656467E+02 -0.716486014473E+02 -0.716486400088E+02 -0.716486814978E+02
 -0.716487260916E+02 -0.716487739792E+02 -0.716488253619E+02 -0.716488804542E+02 -0.716489394846E+02
 -0.716490026959E+02 -0.716490703467E+02 -0.716491427119E+02 -0.716492200840E+02 -0.716493027737E+02
 -0.716493911109E+02 -0.716494854462E+02 -0.716495861518E+02 -0.716496936226E+02 -0.716498082775E+02
 -0.716499305604E+02 -0.716500609421E+02 -0.716501999210E+02 -0.716503480248E+02 -0.716505058118E+02
 -0.716506738722E+02 -0.716508528299E+02 -0.716510433436E+02 -0.716512461083E+02 -0.716514618568E+02
 -0.716516913611E+02 -0.716519354334E+02 -0.716521949281E+02 -0.716524707421E+02 -0.716527638162E+02
 -0.716530751363E+02 -0.716534057334E+02 -0.716537566846E+02 -0.716541291129E+02 -0.716545241868E+02
 -0.716549431201E+02 -0.716553871705E+02 -0.716558576374E+02 -0.716563558601E+02 -0.716568832139E+02
 -0.716574411063E+02 -0.716580309711E+02 -0.716586542622E+02 -0.716593124453E+02 -0.716600069878E+02
 -0.716607393474E+02 -0.716615109578E+02 -0.716623232124E+02 -0.716631774440E+02 -0.716640749028E+02
 -0.716650167289E+02 -0.716660039213E+02 -0.716670373017E+02 -0.716681174722E+02 -0.716692447667E+02
 -0.716704191945E+02 -0.716716403751E+02 -0.716729074630E+02 -0.716742190607E+02 -0.716755731185E+02
 -0.716769668189E+02 -0.716783964423E+02 -0.716798572126E+02 -0.716813431183E+02 -0.716828467050E+02
 -0.716843588355E+02 -0.716858684110E+02 -0.716873620478E+02 -0.716888237015E+02 -0.716902342300E+02
 -0.716915708855E+02 -0.716928067232E+02 -0.716939099137E+02 -0.716948429438E+02 -0.716955616876E+02
 -0.716960143292E+02 -0.716961401151E+02 -0.716958679116E+02 -0.716951145435E+02 -0.716937828837E+02
 -0.716917596688E+02 -0.716889130087E+02 -0.716850895643E+02 -0.716801113670E+02 -0.716737722569E+02
 -0.716658339261E+02 -0.716560215593E+02 -0.716440190768E+02 -0.716294640030E+02 -0.716119419998E+02
 -0.715909811321E+02 -0.715660459583E+02 -0.715365315721E+02 -0.715017577577E+02 -0.714609634584E+02
 -0.714133017940E+02 -0.713578359010E+02 -0.712935358952E+02 -0.712192772792E+02 -0.711338411216E+02
 -0.710359163224E+02 -0.709241042471E+02 -0.707969259523E+02 -0.706528321463E+02 -0.704902159213E+02
 -0.703074281760E+02 -0.701027955158E+02 -0.698746402939E+02 -0.696213023470E+02 -0.693411618930E+02
 -0.690326630134E+02 -0.686943371287E+02 -0.683248258868E+02 -0.679229029112E+02 -0.674874938432E+02
 -0.670176940474E+02 -0.665127831504E+02 -0.659722352317E+02 -0.653957229205E+02 -0.647831128862E+02
 -0.641344492990E+02 -0.634499209645E+02 -0.627298073686E+02 -0.619743994748E+02 -0.611838932586E+02
 -0.603586073768E+02 -0.595280199129E+02 -0.587048561699E+02 -0.577045221228E+02 -0.567203097849E+02
 -0.557221320691E+02 -0.547048730026E+02 -0.536716054399E+02 -0.526254370276E+02 -0.515694285827E+02
 -0.505065032067E+02 -0.494393638705E+02 -0.483704080284E+02 -0.473016587724E+02 -0.462347231358E+02
 -0.451707827604E+02 -0.441106334427E+02 -0.430547715121E+02 -0.420035218311E+02 -0.409571910084E+02
 -0.399162245785E+02 -0.388813435854E+02 -0.378536420570E+02 -0.368346334192E+02 -0.358262425738E+02
 -0.348307470788E+02 -0.338506750682E+02 -0.328886696118E+02 -0.319473305437E+02 -0.310290465533E+02
 -0.301358329808E+02 -0.292691932192E+02 -0.284300220720E+02 -0.276185657803E+02 -0.268344453118E+02
 -0.260767384961E+02 -0.253441060550E+02 -0.246349399225E+02 -0.239475112687E+02 -0.232800998261E+02
 -0.226310932649E+02 -0.219990528767E+02 -0.213827477880E+02 -0.207811635135E+02 -0.201934920111E+02
 -0.196191101231E+02 -0.190575521142E+02 -0.185084805263E+02 -0.179716581486E+02 -0.174469227304E+02
 -0.169341651959E+02 -0.164333115416E+02 -0.159443082399E+02 -0.154671107878E+02 -0.150016749623E+02
 -0.145479503429E+02 -0.141058756896E+02
 core charge-density (pseudized)
  0.161224131807E-07  0.171879821326E-07  0.183239770913E-07  0.195350526804E-07  0.208261711586E-07
  0.222026227524E-07  0.236700473317E-07  0.252344575191E-07  0.269022633257E-07  0.286802984157E-07
  0.305758481065E-07  0.325966792194E-07  0.347510719036E-07  0.370478535630E-07  0.394964350261E-07
  0.421068491050E-07  0.448897917047E-07  0.478566656480E-07  0.510196273975E-07  0.543916368652E-07
  0.579865105149E-07  0.618189779732E-07  0.659047423830E-07  0.702605447452E-07  0.749042325133E-07
  0.798548327216E-07  0.851326299462E-07  0.907592494192E-07  0.967577456355E-07  0.103152696816E-06
  0.109970305616E-06  0.117238506485E-06  0.124987080125E-06  0.133247775520E-06  0.142054440013E-06
  0.151443158004E-06  0.161452398792E-06  0.172123174203E-06  0.183499206635E-06  0.195627108196E-06
  0.208556571703E-06  0.222340574286E-06  0.237035594456E-06  0.252701843524E-06  0.269403512304E-06
  0.287209034133E-06  0.306191365264E-06  0.326428283801E-06  0.348002708381E-06  0.371003037924E-06
  0.395523513843E-06  0.421664606177E-06  0.449533425263E-06  0.479244160606E-06  0.510918548754E-06
  0.544686372098E-06  0.580685990643E-06  0.619064908918E-06  0.659980380356E-06  0.703600051620E-06
  0.750102649515E-06  0.799678713292E-06  0.852531375363E-06  0.908877193602E-06  0.968947038663E-06
  0.103298703994E-05  0.110125959404E-05  0.117404443992E-05  0.125163980508E-05  0.133436362748E-05
  0.142255485827E-05  0.151657485056E-05  0.161680884003E-05  0.172366752333E-05  0.183758874087E-05
  0.195903927079E-05  0.208851674146E-05  0.222655167045E-05  0.237370963821E-05  0.253059360543E-05
  0.269784638349E-05  0.287615326833E-05  0.306624484819E-05  0.326889999711E-05  0.348494906612E-05
  0.371527728540E-05  0.396082839128E-05  0.422260849296E-05  0.450169019470E-05  0.479921699054E-05
  0.511640794940E-05  0.545456270976E-05  0.581506680458E-05  0.619939733793E-05  0.660912903691E-05
  0.704594070348E-05  0.751162209262E-05  0.800808124513E-05  0.853735230487E-05  0.910160385278E-05
  0.970314779147E-05  0.103444488170E-04  0.110281345168E-04  0.117570061342E-04  0.125340500454E-04
  0.133624499935E-04  0.142456001322E-04  0.151871189307E-04  0.161908639975E-04  0.172609478837E-04
  0.184017549309E-04  0.196179592318E-04  0.209145437777E-04  0.222968208714E-04  0.237704538884E-04
  0.253414804759E-04  0.270163372849E-04  0.288018863361E-04  0.307054431270E-04  0.327348065970E-04
  0.348982910712E-04  0.372047603147E-04  0.396636638362E-04  0.422850755898E-04  0.450797352331E-04
  0.480590921104E-04  0.512353521409E-04  0.546215278030E-04  0.582314914207E-04  0.620800319676E-04
  0.661829156227E-04  0.705569503244E-04  0.752200545865E-04  0.801913308577E-04  0.854911437241E-04
  0.911412032734E-04  0.971646539622E-04  0.103586169348E-03  0.110432053073E-03  0.117730346512E-03
  0.125510943521E-03  0.133805712761E-03  0.142648628084E-03  0.152075907521E-03  0.162126161443E-03
  0.172840550478E-03  0.184262953853E-03  0.196440148817E-03  0.209422001910E-03  0.223261672809E-03
  0.238015831627E-03  0.253744890509E-03  0.270513250486E-03  0.288389564573E-03  0.307447018197E-03
  0.327763628057E-03  0.349422560659E-03  0.372512471791E-03  0.397127868312E-03  0.423369493715E-03
  0.451344739021E-03  0.481168080646E-03  0.512961547008E-03  0.546855215743E-03  0.582987743527E-03
  0.621506930604E-03  0.662570322310E-03  0.706345849946E-03  0.753012513592E-03  0.802761109539E-03
  0.855795005251E-03  0.912330964895E-03  0.972600028709E-03  0.103684844967E-02  0.110533869113E-02
  0.117835048929E-02  0.125618198476E-02  0.133915092745E-02  0.142759595955E-02  0.152187798159E-02
  0.162238160668E-02  0.172951670862E-02  0.184372006972E-02  0.196545713452E-02  0.209522387616E-02
  0.223354878214E-02  0.238099496708E-02  0.253816242016E-02  0.270569039547E-02  0.288425995399E-02
  0.307459666636E-02  0.327747348602E-02  0.349371380295E-02  0.372419468863E-02  0.396985034338E-02
  0.423167575793E-02  0.451073060141E-02  0.480814334869E-02  0.512511566046E-02  0.546292703001E-02
  0.582293971143E-02  0.620660394398E-02  0.661546348869E-02  0.705116149290E-02  0.751544669959E-02
  0.801018001833E-02  0.853734147533E-02  0.909903756001E-02  0.969750898599E-02  0.103351388842E-01
  0.110144614460E-01  0.117381710332E-01  0.125091317732E-01  0.133303876531E-01  0.142051731313E-01
  0.151369242765E-01  0.161292904499E-01  0.171861465378E-01  0.183116057424E-01  0.195100329354E-01
  0.207860585723E-01  0.221445931639E-01  0.235908422919E-01  0.251303221521E-01  0.267688755977E-01
  0.285126886475E-01  0.303683074115E-01  0.323426553737E-01  0.344430509574E-01  0.366772252798E-01
  0.390533399836E-01  0.415800050105E-01  0.442662961536E-01  0.471217721979E-01  0.501564914228E-01
  0.533810272013E-01  0.568064823877E-01  0.604445021353E-01  0.643072847305E-01  0.684075899652E-01
  0.727587445014E-01  0.773746436012E-01  0.822697485089E-01  0.874590786742E-01  0.929581978976E-01
  0.987831933608E-01  0.104950646375E+00  0.111477593534E+00  0.118381476813E+00  0.125680080974E+00
  0.133391456468E+00  0.141533825829E+00  0.150125471358E+00  0.159184601667E+00  0.168729194464E+00
  0.178776812696E+00  0.189344390999E+00  0.200447989139E+00  0.212102508977E+00  0.224321371283E+00
  0.237116148610E+00  0.250496150366E+00  0.264467956191E+00  0.279034893870E+00  0.294196458207E+00
  0.309947667657E+00  0.326278356124E+00  0.343172398101E+00  0.360606866497E+00  0.378551123937E+00
  0.396965850267E+00  0.415802011387E+00  0.434999777574E+00  0.454487403136E+00  0.474180083721E+00
  0.493978812968E+00  0.513769266462E+00  0.533420748361E+00  0.552785244449E+00  0.571696634977E+00
  0.589970131248E+00  0.607402011532E+00  0.623769744231E+00  0.638832598967E+00  0.652332858890E+00
  0.663997759223E+00  0.673542286843E+00  0.680672982163E+00  0.685092885903E+00  0.686507767297E+00
  0.684633753990E+00  0.679206454047E+00  0.669991613151E+00  0.656797280682E+00  0.639487362127E+00
  0.617996307123E+00  0.592344517474E+00  0.562653853872E+00  0.529162371385E+00  0.492237122767E+00
  0.452383540380E+00  0.410249553730E+00  0.366622240832E+00  0.322414480505E+00  0.278638816651E+00
  0.236365630232E+00  0.196662826353E+00  0.160514690752E+00  0.128718481301E+00  0.101758840740E+00
  0.796622930107E-01  0.618996806998E-01  0.477337869701E-01  0.365200176660E-01  0.277117891071E-01
  0.208489015311E-01  0.155467424512E-01  0.114863554853E-01  0.840538232380E-02  0.608986718530E-02
  0.436690064696E-02  0.309807144818E-02  0.217368867312E-02  0.150773176296E-02  0.103348150522E-02
  0.699781386377E-03  0.467875601388E-03  0.308767798062E-03  0.201043532453E-03  0.129099560764E-03
  0.817245285825E-04  0.509782585048E-04  0.313205041991E-04  0.189444968809E-04  0.112755896553E-04
  0.660053608659E-05  0.379816933254E-05  0.214725961633E-05  0.119194911443E-05  0.649275564988E-06
  0.346833657428E-06  0.181570188687E-06  0.930888097710E-07  0.467054387259E-07  0.229156227525E-07
  0.109864617440E-07  0.514286330779E-08  0.234867929426E-08  0.104557837096E-08  0.453354503961E-09
  0.191290583853E-09  0.784766415488E-10  0.312741548462E-10  0.120955583502E-10  0.453572841124E-11
  0.164748908891E-11  0.579046173683E-12  0.196727964981E-12  0.645377660077E-13  0.204208658028E-13
  0.622512818218E-14  0.182608606554E-14  0.514826036349E-15  0.139320671753E-15  0.361424164269E-16
  0.897587451192E-17  0.213101089599E-17
 pseudo wavefunction
  0.160830388902E-03  0.166060191892E-03  0.171460055025E-03  0.177035508233E-03  0.182792261265E-03
  0.188736209540E-03  0.194873440179E-03  0.201210238243E-03  0.207753093165E-03  0.214508705400E-03
  0.221483993284E-03  0.228686100121E-03  0.236122401496E-03  0.243800512831E-03  0.251728297180E-03
  0.259913873287E-03  0.268365623896E-03  0.277092204335E-03  0.286102551383E-03  0.295405892422E-03
  0.305011754883E-03  0.314929976006E-03  0.325170712913E-03  0.335744453011E-03  0.346662024730E-03
  0.357934608614E-03  0.369573748769E-03  0.381591364688E-03  0.393999763455E-03  0.406811652347E-03
  0.420040151854E-03  0.433698809108E-03  0.447801611759E-03  0.462363002303E-03  0.477397892866E-03
  0.492921680481E-03  0.508950262851E-03  0.525500054633E-03  0.542588004248E-03  0.560231611234E-03
  0.578448944170E-03  0.597258659181E-03  0.616680019038E-03  0.636732912890E-03  0.657437876629E-03
  0.678816113921E-03  0.700889517920E-03  0.723680693691E-03  0.747212981354E-03  0.771510479990E-03
  0.796598072320E-03  0.822501450184E-03  0.849247140853E-03  0.876862534198E-03  0.905375910732E-03
  0.934816470577E-03  0.965214363364E-03  0.996600719112E-03  0.102900768010E-02  0.106246843379E-02
  0.109701724681E-02  0.113268950003E-02  0.116952172485E-02  0.120755164051E-02  0.124681819283E-02
  0.128736159401E-02  0.132922336383E-02  0.137244637220E-02  0.141707488302E-02  0.146315459952E-02
  0.151073271108E-02  0.155985794152E-02  0.161058059903E-02  0.166295262767E-02  0.171702766054E-02
  0.177286107475E-02  0.183051004809E-02  0.189003361758E-02  0.195149273995E-02  0.201495035404E-02
  0.208047144523E-02  0.214812311204E-02  0.221797463479E-02  0.229009754654E-02  0.236456570636E-02
  0.244145537497E-02  0.252084529277E-02  0.260281676051E-02  0.268745372256E-02  0.277484285277E-02
  0.286507364333E-02  0.295823849629E-02  0.305443281827E-02  0.315375511806E-02  0.325630710752E-02
  0.336219380571E-02  0.347152364641E-02  0.358440858912E-02  0.370096423371E-02  0.382130993873E-02
  0.394556894363E-02  0.407386849489E-02  0.420633997633E-02  0.434311904355E-02  0.448434576282E-02
  0.463016475444E-02  0.478072534078E-02  0.493618169910E-02  0.509669301935E-02  0.526242366713E-02
  0.543354335185E-02  0.561022730042E-02  0.579265643660E-02  0.598101756610E-02  0.617550356772E-02
  0.637631359070E-02  0.658365325848E-02  0.679773487907E-02  0.701877766218E-02  0.724700794350E-02
  0.748265941619E-02  0.772597336985E-02  0.797719893729E-02  0.823659334931E-02  0.850442219764E-02
  0.878095970651E-02  0.906648901292E-02  0.936130245608E-02  0.966570187613E-02  0.997999892257E-02
  0.103045153727E-01  0.106395834601E-01  0.109855462145E-01  0.113427578113E-01  0.117115839337E-01
  0.120924021458E-01  0.124856022781E-01  0.128915868249E-01  0.133107713549E-01  0.137435849354E-01
  0.141904705693E-01  0.146518856467E-01  0.151283024109E-01  0.156202084397E-01  0.161281071411E-01
  0.166525182665E-01  0.171939784388E-01  0.177530416984E-01  0.183302800662E-01  0.189262841247E-01
  0.195416636178E-01  0.201770480693E-01  0.208330874216E-01  0.215104526943E-01  0.222098366635E-01
  0.229319545636E-01  0.236775448098E-01  0.244473697449E-01  0.252422164084E-01  0.260628973302E-01
  0.269102513498E-01  0.277851444599E-01  0.286884706770E-01  0.296211529395E-01  0.305841440322E-01
  0.315784275413E-01  0.326050188366E-01  0.336649660857E-01  0.347593512983E-01  0.358892914019E-01
  0.370559393507E-01  0.382604852678E-01  0.395041576207E-01  0.407882244333E-01  0.421139945320E-01
  0.434828188298E-01  0.448960916469E-01  0.463552520695E-01  0.478617853485E-01  0.494172243362E-01
  0.510231509649E-01  0.526811977655E-01  0.543930494284E-01  0.561604444062E-01  0.579851765591E-01
  0.598690968441E-01  0.618141150472E-01  0.638222015593E-01  0.658953891970E-01  0.680357750662E-01
  0.702455224707E-01  0.725268628643E-01  0.748820978459E-01  0.773136011976E-01  0.798238209646E-01
  0.824152815759E-01  0.850905860048E-01  0.878524179664E-01  0.907035441518E-01  0.936468164950E-01
  0.966851744706E-01  0.998216474186E-01  0.103059356893E+00  0.106401519028E+00  0.109851446922E+00
  0.113412553020E+00  0.117088351513E+00  0.120882460714E+00  0.124798605433E+00  0.128840619318E+00
  0.133012447167E+00  0.137318147193E+00  0.141761893219E+00  0.146347976809E+00  0.151080809300E+00
  0.155964923717E+00  0.161004976567E+00  0.166205749460E+00  0.171572150562E+00  0.177109215827E+00
  0.182822109987E+00  0.188716127265E+00  0.194796691761E+00  0.201069357487E+00  0.207539807982E+00
  0.214213855467E+00  0.221097439481E+00  0.228196624925E+00  0.235517599460E+00  0.243066670158E+00
  0.250850259345E+00  0.258874899533E+00  0.267147227326E+00  0.275673976216E+00  0.284461968124E+00
  0.293518103556E+00  0.302849350245E+00  0.312462730097E+00  0.322365304286E+00  0.332564156307E+00
  0.343066372777E+00  0.353879021771E+00  0.365009128457E+00  0.376463647762E+00  0.388249433805E+00
  0.400373205790E+00  0.412841510047E+00  0.425660677866E+00  0.438836778782E+00  0.452375568893E+00
  0.466282433832E+00  0.480562325923E+00  0.495219695099E+00  0.510258413079E+00  0.525681690312E+00
  0.541491985188E+00  0.557690904962E+00  0.574279097891E+00  0.591256136012E+00  0.608620388063E+00
  0.626368882004E+00  0.644497156675E+00  0.662999102129E+00  0.681866788257E+00  0.701090281410E+00
  0.720657448797E+00  0.740553750605E+00  0.760762019925E+00  0.781262230792E+00  0.802031254888E+00
  0.823042607749E+00  0.844266185689E+00  0.865667995068E+00  0.887209876011E+00  0.908849223289E+00
  0.930538707691E+00  0.952226001994E+00  0.973853516483E+00  0.995358149896E+00  0.101667106275E+01
  0.103771748113E+01  0.105841654027E+01  0.107868117856E+01  0.109841809393E+01  0.111752777605E+01
  0.113590462904E+01  0.115343720053E+01  0.117000853427E+01  0.118549666385E+01  0.119977526579E+01
  0.121271448957E+01  0.122418198156E+01  0.123404411713E+01  0.124216745193E+01  0.124842039825E+01
  0.125267512471E+01  0.125480966805E+01  0.125471023314E+01  0.125227364126E+01  0.124740986714E+01
  0.124004458200E+01  0.123012159170E+01  0.121760502835E+01  0.120248111808E+01  0.118475931097E+01
  0.116447252090E+01  0.114167618667E+01  0.111644583565E+01  0.108887281059E+01  0.105905781756E+01
  0.102710197526E+01  0.993095103523E+00  0.957101094214E+00  0.919137023555E+00  0.879248328914E+00
  0.837744495328E+00  0.795010598363E+00  0.751424880904E+00  0.707354460142E+00  0.663151435114E+00
  0.619149394096E+00  0.575660347335E+00  0.532972092694E+00  0.491346015016E+00  0.451015317645E+00
  0.412183686514E+00  0.375024393973E+00  0.339679856175E+00  0.306261662867E+00  0.274851096968E+00
  0.245500151070E+00  0.218233029731E+00  0.193048101386E+00  0.169920237654E+00  0.148803454886E+00
  0.129633757224E+00  0.112332074235E+00  0.968071894744E-01  0.829585677231E-01  0.706790060446E-01
  0.598570546476E-01  0.503791754884E-01  0.421316271903E-01  0.350020820645E-01  0.288809931081E-01
  0.236627349644E-01  0.192465432533E-01  0.155372728808E-01  0.124459901178E-01  0.989040767044E-02
  0.779516833058E-02  0.609198185326E-02  0.471962128293E-02  0.362378826583E-02  0.275686090580E-02
  0.207754149449E-02  0.155042427987E-02  0.114550495393E-02  0.837653656425E-03  0.606072132115E-03
  0.433753502441E-03  0.306960235585E-03  0.214732639455E-03  0.148436848746E-03  0.101358064231E-03
  0.683419047636E-04  0.454842641240E-04
 ae wavefunction
 -0.243465150019E-02 -0.251103632889E-02 -0.258980833663E-02 -0.267104153429E-02 -0.275481218930E-02
 -0.284119889199E-02 -0.293028262381E-02 -0.302214682734E-02 -0.311687747819E-02 -0.321456315876E-02
 -0.331529513398E-02 -0.341916742902E-02 -0.352627690894E-02 -0.363672336044E-02 -0.375060957565E-02
 -0.386804143805E-02 -0.398912801046E-02 -0.411398162520E-02 -0.424271797656E-02 -0.437545621528E-02
 -0.451231904538E-02 -0.465343282330E-02 -0.479892765919E-02 -0.494893752066E-02 -0.510360033865E-02
 -0.526305811585E-02 -0.542745703727E-02 -0.559694758337E-02 -0.577168464521E-02 -0.595182764241E-02
 -0.613754064301E-02 -0.632899248599E-02 -0.652635690594E-02 -0.672981266007E-02 -0.693954365751E-02
 -0.715573909082E-02 -0.737859356972E-02 -0.760830725690E-02 -0.784508600595E-02 -0.808914150128E-02
 -0.834069139992E-02 -0.859995947522E-02 -0.886717576218E-02 -0.914257670439E-02 -0.942640530248E-02
 -0.971891126381E-02 -0.100203511533E-01 -0.103309885451E-01 -0.106510941755E-01 -0.109809460953E-01
 -0.113208298238E-01 -0.116710385015E-01 -0.120318730435E-01 -0.124036422912E-01 -0.127866631644E-01
 -0.131812608104E-01 -0.135877687526E-01 -0.140065290361E-01 -0.144378923707E-01 -0.148822182709E-01
 -0.153398751915E-01 -0.158112406588E-01 -0.162967013973E-01 -0.167966534493E-01 -0.173115022890E-01
 -0.178416629282E-01 -0.183875600138E-01 -0.189496279164E-01 -0.195283108078E-01 -0.201240627269E-01
 -0.207373476338E-01 -0.213686394486E-01 -0.220184220759E-01 -0.226871894116E-01 -0.233754453322E-01
 -0.240837036632E-01 -0.248124881259E-01 -0.255623322611E-01 -0.263337793264E-01 -0.271273821658E-01
 -0.279437030494E-01 -0.287833134803E-01 -0.296467939669E-01 -0.305347337565E-01 -0.314477305293E-01
 -0.323863900478E-01 -0.333513257598E-01 -0.343431583505E-01 -0.353625152410E-01 -0.364100300287E-01
 -0.374863418662E-01 -0.385920947733E-01 -0.397279368791E-01 -0.408945195884E-01 -0.420924966678E-01
 -0.433225232462E-01 -0.445852547240E-01 -0.458813455858E-01 -0.472114481095E-01 -0.485762109673E-01
 -0.499762777087E-01 -0.514122851231E-01 -0.528848614698E-01 -0.543946245720E-01 -0.559421797643E-01
 -0.575281176864E-01 -0.591530119146E-01 -0.608174164219E-01 -0.625218628579E-01 -0.642668576387E-01
 -0.660528788369E-01 -0.678803728623E-01 -0.697497509224E-01 -0.716613852524E-01 -0.736156051032E-01
 -0.756126924779E-01 -0.776528776032E-01 -0.797363341270E-01 -0.818631740289E-01 -0.840334422321E-01
 -0.862471109068E-01 -0.885040734515E-01 -0.908041381429E-01 -0.931470214417E-01 -0.955323409444E-01
 -0.979596079710E-01 -0.100428219778E+00 -0.102937451388E+00 -0.105486447029E+00 -0.108074211172E+00
 -0.110699599164E+00 -0.113361307458E+00 -0.116057863414E+00 -0.118787614706E+00 -0.121548718294E+00
 -0.124339129003E+00 -0.127156587681E+00 -0.129998608972E+00 -0.132862468696E+00 -0.135745190861E+00
 -0.138643534324E+00 -0.141553979129E+00 -0.144472712540E+00 -0.147395614816E+00 -0.150318244766E+00
 -0.153235825118E+00 -0.156143227779E+00 -0.159034959026E+00 -0.161905144708E+00 -0.164747515542E+00
 -0.167555392586E+00 -0.170321672987E+00 -0.173038816119E+00 -0.175698830236E+00 -0.178293259765E+00
 -0.180813173397E+00 -0.183249153142E+00 -0.185591284505E+00 -0.187829148009E+00 -0.189951812244E+00
 -0.191947828691E+00 -0.193805228551E+00 -0.195511521851E+00 -0.197053699101E+00 -0.198418235811E+00
 -0.199591100173E+00 -0.200557764258E+00 -0.201303219077E+00 -0.201811993884E+00 -0.202068180104E+00
 -0.202055460309E+00 -0.201757142643E+00 -0.201156201148E+00 -0.200235322435E+00 -0.198976959143E+00
 -0.197363390649E+00 -0.195376791500E+00 -0.192999308001E+00 -0.190213143421E+00 -0.187000652243E+00
 -0.183344443859E+00 -0.179227496112E+00 -0.174633278998E+00 -0.169545888844E+00 -0.163950193198E+00
 -0.157831986586E+00 -0.151178157248E+00 -0.143976864824E+00 -0.136217728907E+00 -0.127892028207E+00
 -0.118992909969E+00 -0.109515609115E+00 -0.994576764227E-01 -0.888192148323E-01 -0.776031227969E-01
 -0.658153433324E-01 -0.534651171801E-01 -0.405652382278E-01 -0.271323090551E-01 -0.131869941956E-01
  0.124573154418E-02  0.161363425911E-01  0.314505329792E-01  0.471490007510E-01  0.631872496290E-01
  0.795154113219E-01  0.960780920529E-01  0.112814247317E+00  0.129657089498E+00  0.146534033766E+00
  0.163366688512E+00  0.180070897248E+00  0.196556839345E+00  0.212729196950E+00  0.228487394988E+00
  0.243725920264E+00  0.258334724543E+00  0.272199715397E+00  0.285203337723E+00  0.297225248214E+00
  0.308143084537E+00  0.317833330280E+00  0.326172275808E+00  0.333037073968E+00  0.338306888237E+00
  0.341864129405E+00  0.343595775348E+00  0.343394766750E+00  0.341161469870E+00  0.336805195556E+00
  0.330245761665E+00  0.321415083917E+00  0.310258778007E+00  0.296737753536E+00  0.280829778085E+00
  0.262530987574E+00  0.241857317101E+00  0.218845824672E+00  0.193555878927E+00  0.166070181039E+00
  0.136495590658E+00  0.104963725900E+00  0.716313080424E-01  0.366802225855E-01  0.317269774643E-03
 -0.372264199410E-01 -0.756963253361E-01 -0.114815839120E+00 -0.154287931598E+00 -0.193797142903E+00
 -0.233011848798E+00 -0.271586735730E+00 -0.309165446798E+00 -0.345383430367E+00 -0.379871113401E+00
 -0.412257561396E+00 -0.442174696492E+00 -0.469261945107E+00 -0.493171036453E+00 -0.513570699727E+00
 -0.530151143864E+00 -0.542628305158E+00 -0.550747863875E+00 -0.554288999217E+00 -0.553067816766E+00
 -0.546940366031E+00 -0.535805169856E+00 -0.519605205061E+00 -0.498329297923E+00 -0.472012920320E+00
 -0.440738391031E+00 -0.404634499929E+00 -0.363875582020E+00 -0.318680073774E+00 -0.269308587083E+00
 -0.216061537094E+00 -0.159276359023E+00 -0.993243478380E-01 -0.366071522804E-01  0.284470457282E-01
  0.953876353896E-01  0.163745930990E+00  0.233039736641E+00  0.302778075829E+00  0.372466032217E+00
  0.441609642679E+00  0.509720782712E+00  0.576321990670E+00  0.640951191914E+00  0.703166298968E+00
  0.762549669442E+00  0.818712376069E+00  0.871298162008E+00  0.919986814687E+00  0.964496544100E+00
  0.100458492800E+01  0.104004825667E+01  0.107071971502E+01  0.109646749282E+01  0.111719408716E+01
  0.113283744712E+01  0.114337357659E+01  0.114881947750E+01  0.114923534954E+01  0.114472544631E+01
  0.113543752937E+01  0.112156113908E+01  0.110332494518E+01  0.108099338838E+01  0.105486276346E+01
  0.102525685297E+01  0.992522216195E+00  0.957023233680E+00  0.919137023555E+00  0.879248328914E+00
  0.837744495328E+00  0.795010598363E+00  0.751424880904E+00  0.707354460142E+00  0.663151435114E+00
  0.619149394096E+00  0.575660347335E+00  0.532972092694E+00  0.491346015016E+00  0.451015317645E+00
  0.412183686514E+00  0.375024393973E+00  0.339679856175E+00  0.306261662867E+00  0.274851096968E+00
  0.245500151070E+00  0.218233029731E+00  0.193048101386E+00  0.169920237654E+00  0.148803454886E+00
  0.129633757224E+00  0.112332074235E+00  0.968071894744E-01  0.829585677231E-01  0.706790060446E-01
  0.598570546476E-01  0.503791754884E-01  0.421316271903E-01  0.350020820645E-01  0.288809931081E-01
  0.236627349644E-01  0.192465432533E-01  0.155372728808E-01  0.124459901178E-01  0.989040767044E-02
  0.779516833058E-02  0.609198185326E-02  0.471962128293E-02  0.362378826583E-02  0.275686090580E-02
  0.207754149449E-02  0.155042427987E-02  0.114550495393E-02  0.837653656425E-03  0.606072132115E-03
  0.433753502441E-03  0.306960235585E-03  0.214732639455E-03  0.148436848746E-03  0.101358064231E-03
  0.683419047636E-04  0.454842641240E-04
 pseudo wavefunction
  0.185907996343E-03  0.191953260560E-03  0.198195101684E-03  0.204639911905E-03  0.211294291272E-03
  0.218165054450E-03  0.225259237701E-03  0.232584106086E-03  0.240147160910E-03  0.247956147402E-03
  0.256019062644E-03  0.264344163766E-03  0.272939976398E-03  0.281815303400E-03  0.290979233883E-03
  0.300441152509E-03  0.310210749109E-03  0.320298028601E-03  0.330713321238E-03  0.341467293188E-03
  0.352570957456E-03  0.364035685159E-03  0.375873217179E-03  0.388095676178E-03  0.400715579019E-03
  0.413745849581E-03  0.427199831994E-03  0.441091304306E-03  0.455434492594E-03  0.470244085528E-03
  0.485535249419E-03  0.501323643748E-03  0.517625437200E-03  0.534457324227E-03  0.551836542142E-03
  0.569780888771E-03  0.588308740680E-03  0.607439071994E-03  0.627191473829E-03  0.647586174353E-03
  0.668644059504E-03  0.690386694374E-03  0.712836345300E-03  0.736016002660E-03  0.759949404421E-03
  0.784661060448E-03  0.810176277603E-03  0.836521185660E-03  0.863722764068E-03  0.891808869574E-03
  0.920808264757E-03  0.950750647476E-03  0.981666681290E-03  0.101358802685E-02  0.104654737434E-02
  0.108057847692E-02  0.111571618533E-02  0.115199648356E-02  0.118945652571E-02  0.122813467400E-02
  0.126807053811E-02  0.130930501573E-02  0.135188033439E-02  0.139584009479E-02  0.144122931535E-02
  0.148809447842E-02  0.153648357777E-02  0.158644616783E-02  0.163803341437E-02  0.169129814695E-02
  0.174629491296E-02  0.180308003353E-02  0.186171166118E-02  0.192224983938E-02  0.198475656402E-02
  0.204929584691E-02  0.211593378130E-02  0.218473860963E-02  0.225578079331E-02  0.232913308497E-02
  0.240487060288E-02  0.248307090791E-02  0.256381408296E-02  0.264718281492E-02  0.273326247937E-02
  0.282214122800E-02  0.291391007886E-02  0.300866300956E-02  0.310649705350E-02  0.320751239920E-02
  0.331181249293E-02  0.341950414457E-02  0.353069763703E-02  0.364550683911E-02  0.376404932212E-02
  0.388644648021E-02  0.401282365472E-02  0.414331026243E-02  0.427803992812E-02  0.441715062131E-02
  0.456078479754E-02  0.470908954420E-02  0.486221673107E-02  0.502032316581E-02  0.518357075448E-02
  0.535212666722E-02  0.552616350941E-02  0.570585949830E-02  0.589139864541E-02  0.608297094490E-02
  0.628077256796E-02  0.648500606357E-02  0.669588056581E-02  0.691361200781E-02  0.713842334272E-02
  0.737054477179E-02  0.761021397995E-02  0.785767637889E-02  0.811318535814E-02  0.837700254425E-02
  0.864939806838E-02  0.893065084255E-02  0.922104884487E-02  0.952088941398E-02  0.983047955309E-02
  0.101501362438E-01  0.104801867700E-01  0.108209690527E-01  0.111728319950E-01  0.115361358387E-01
  0.119112525324E-01  0.122985661114E-01  0.126984730898E-01  0.131113828657E-01  0.135377181385E-01
  0.139779153412E-01  0.144324250851E-01  0.149017126197E-01  0.153862583074E-01  0.158865581132E-01
  0.164031241101E-01  0.169364850014E-01  0.174871866589E-01  0.180557926789E-01  0.186428849563E-01
  0.192490642762E-01  0.198749509254E-01  0.205211853231E-01  0.211884286713E-01  0.218773636272E-01
  0.225886949952E-01  0.233231504431E-01  0.240814812388E-01  0.248644630128E-01  0.256728965423E-01
  0.265076085626E-01  0.273694526021E-01  0.282593098451E-01  0.291780900208E-01  0.301267323205E-01
  0.311062063437E-01  0.321175130737E-01  0.331616858832E-01  0.342397915715E-01  0.353529314341E-01
  0.365022423643E-01  0.376888979896E-01  0.389141098426E-01  0.401791285675E-01  0.414852451632E-01
  0.428337922641E-01  0.442261454590E-01  0.456637246502E-01  0.471479954520E-01  0.486804706309E-01
  0.502627115881E-01  0.518963298849E-01  0.535829888119E-01  0.553244050034E-01  0.571223500971E-01
  0.589786524407E-01  0.608951988450E-01  0.628739363857E-01  0.649168742533E-01  0.670260856520E-01
  0.692037097489E-01  0.714519536724E-01  0.737730945613E-01  0.761694816645E-01  0.786435384909E-01
  0.811977650096E-01  0.838347399007E-01  0.865571228547E-01  0.893676569213E-01  0.922691709054E-01
  0.952645818103E-01  0.983568973242E-01  0.101549218351E+00  0.104844741580E+00  0.108246762095E+00
  0.111758676014E+00  0.115383983162E+00  0.119126289769E+00  0.122989311184E+00  0.126976874613E+00
  0.131092921850E+00  0.135341512018E+00  0.139726824301E+00  0.144253160644E+00  0.148924948436E+00
  0.153746743144E+00  0.158723230881E+00  0.163859230912E+00  0.169159698059E+00  0.174629724995E+00
  0.180274544406E+00  0.186099530986E+00  0.192110203251E+00  0.198312225129E+00  0.204711407301E+00
  0.211313708249E+00  0.218125234968E+00  0.225152243302E+00  0.232401137851E+00  0.239878471383E+00
  0.247590943708E+00  0.255545399917E+00  0.263748827944E+00  0.272208355338E+00  0.280931245174E+00
  0.289924890985E+00  0.299196810630E+00  0.308754638945E+00  0.318606119076E+00  0.328759092328E+00
  0.339221486386E+00  0.350001301728E+00  0.361106596044E+00  0.372545466466E+00  0.384326029370E+00
  0.396456397536E+00  0.408944654372E+00  0.421798824951E+00  0.435026843540E+00  0.448636517294E+00
  0.462635485769E+00  0.477031175867E+00  0.491830751812E+00  0.507041059719E+00  0.522668566298E+00
  0.538719291204E+00  0.555198732505E+00  0.572111784736E+00  0.589462648952E+00  0.607254734198E+00
  0.625490549765E+00  0.644171587607E+00  0.663298194265E+00  0.682869431654E+00  0.702882926051E+00
  0.723334704666E+00  0.744219019180E+00  0.765528155681E+00  0.787252230516E+00  0.809378971623E+00
  0.831893485062E+00  0.854778006575E+00  0.878011638212E+00  0.901570070276E+00  0.925425289112E+00
  0.949545271624E+00  0.973893667756E+00  0.998429472699E+00  0.102310669109E+01  0.104787399617E+01
  0.107267438745E+01  0.109744485162E+01  0.112211603186E+01  0.114661191231E+01  0.117084952534E+01
  0.119473869042E+01  0.121818179526E+01  0.124107363079E+01  0.126330129342E+01  0.128474416943E+01
  0.130527401796E+01  0.132475517016E+01  0.134304486350E+01  0.135999373106E+01  0.137544646563E+01
  0.138924267857E+01  0.140121797170E+01  0.141120523836E+01  0.141903620557E+01  0.142454322372E+01
  0.142756130186E+01  0.142793037626E+01  0.142549778597E+01  0.142012091181E+01  0.141166991447E+01
  0.140003048194E+01  0.138510646772E+01  0.136682226862E+01  0.134512475484E+01  0.131998452848E+01
  0.129139624957E+01  0.125937773602E+01  0.122396751937E+01  0.118522052740E+01  0.114320157586E+01
  0.109797639312E+01  0.104959998519E+01  0.998102286855E+00  0.943471249599E+00  0.885717058910E+00
  0.825128416315E+00  0.762055369516E+00  0.696824267306E+00  0.000000000000E+00  0.000000000000E+00
  0.000000000000E+00  0.000000000000E+00  0.000000000000E+00  0.000000000000E+00  0.000000000000E+00
  0.000000000000E+00  0.000000000000E+00  0.000000000000E+00  0.000000000000E+00  0.000000000000E+00
  0.000000000000E+00  0.000000000000E+00  0.000000000000E+00  0.000000000000E+00  0.000000000000E+00
  0.000000000000E+00  0.000000000000E+00  0.000000000000E+00  0.000000000000E+00  0.000000000000E+00
  0.000000000000E+00  0.000000000000E+00  0.000000000000E+00  0.000000000000E+00  0.000000000000E+00
  0.000000000000E+00  0.000000000000E+00  0.000000000000E+00  0.000000000000E+00  0.000000000000E+00
  0.000000000000E+00  0.000000000000E+00  0.000000000000E+00  0.000000000000E+00  0.000000000000E+00
  0.000000000000E+00  0.000000000000E+00  0.000000000000E+00  0.000000000000E+00  0.000000000000E+00
  0.000000000000E+00  0.000000000000E+00  0.000000000000E+00  0.000000000000E+00  0.000000000000E+00
  0.000000000000E+00  0.000000000000E+00
 ae wavefunction
 -0.279151270619E-02 -0.287909370839E-02 -0.296941179241E-02 -0.306255181735E-02 -0.315860122959E-02
 -0.325765013890E-02 -0.335979139664E-02 -0.346512067607E-02 -0.357373655472E-02 -0.368574059903E-02
 -0.380123745116E-02 -0.392033491809E-02 -0.404314406294E-02 -0.416977929873E-02 -0.430035848441E-02
 -0.443500302343E-02 -0.457383796453E-02 -0.471699210527E-02 -0.486459809787E-02 -0.501679255769E-02
 -0.517371617418E-02 -0.533551382456E-02 -0.550233468997E-02 -0.567433237438E-02 -0.585166502608E-02
 -0.603449546188E-02 -0.622299129396E-02 -0.641732505954E-02 -0.661767435293E-02 -0.682422196078E-02
 -0.703715599951E-02 -0.725667005576E-02 -0.748296332936E-02 -0.771624077897E-02 -0.795671327028E-02
 -0.820459772688E-02 -0.846011728348E-02 -0.872350144173E-02 -0.899498622829E-02 -0.927481435532E-02
 -0.956323538304E-02 -0.986050588444E-02 -0.101668896120E-01 -0.104826576662E-01 -0.108080886654E-01
 -0.111434689180E-01 -0.114890925950E-01 -0.118452619041E-01 -0.122122872646E-01 -0.125904874829E-01
 -0.129801899282E-01 -0.133817307082E-01 -0.137954548446E-01 -0.142217164473E-01 -0.146608788885E-01
 -0.151133149742E-01 -0.155794071138E-01 -0.160595474877E-01 -0.165541382110E-01 -0.170635914940E-01
 -0.175883297975E-01 -0.181287859838E-01 -0.186854034613E-01 -0.192586363222E-01 -0.198489494727E-01
 -0.204568187548E-01 -0.210827310579E-01 -0.217271844200E-01 -0.223906881171E-01 -0.230737627386E-01
 -0.237769402489E-01 -0.245007640327E-01 -0.252457889221E-01 -0.260125812055E-01 -0.268017186141E-01
 -0.276137902866E-01 -0.284493967080E-01 -0.293091496221E-01 -0.301936719131E-01 -0.311035974571E-01
 -0.320395709376E-01 -0.330022476244E-01 -0.339922931123E-01 -0.350103830158E-01 -0.360572026182E-01
 -0.371334464697E-01 -0.382398179316E-01 -0.393770286638E-01 -0.405457980489E-01 -0.417468525508E-01
 -0.429809250026E-01 -0.442487538176E-01 -0.455510821207E-01 -0.468886567920E-01 -0.482622274194E-01
 -0.496725451520E-01 -0.511203614501E-01 -0.526064267232E-01 -0.541314888506E-01 -0.556962915760E-01
 -0.573015727696E-01 -0.589480625496E-01 -0.606364812533E-01 -0.623675372510E-01 -0.641419245934E-01
 -0.659603204813E-01 -0.678233825499E-01 -0.697317459568E-01 -0.716860202628E-01 -0.736867860952E-01
 -0.757345915821E-01 -0.778299485461E-01 -0.799733284463E-01 -0.821651580549E-01 -0.844058148579E-01
 -0.866956221654E-01 -0.890348439203E-01 -0.914236791909E-01 -0.938622563351E-01 -0.963506268232E-01
 -0.988887587053E-01 -0.101476529711E+00 -0.104113719966E+00 -0.106800004320E+00 -0.109534944262E+00
 -0.112317979423E+00 -0.115148418646E+00 -0.118025430619E+00 -0.120948034058E+00 -0.123915087429E+00
 -0.126925278214E+00 -0.129977111697E+00 -0.133068899285E+00 -0.136198746343E+00 -0.139364539568E+00
 -0.142563933878E+00 -0.145794338844E+00 -0.149052904664E+00 -0.152336507693E+00 -0.155641735555E+00
 -0.158964871843E+00 -0.162301880453E+00 -0.165648389574E+00 -0.168999675374E+00 -0.172350645434E+00
 -0.175695821977E+00 -0.179029324961E+00 -0.182344855100E+00 -0.185635676897E+00 -0.188894601784E+00
 -0.192113971459E+00 -0.195285641550E+00 -0.198400965718E+00 -0.201450780348E+00 -0.204425389986E+00
 -0.207314553677E+00 -0.210107472412E+00 -0.212792777875E+00 -0.215358522707E+00 -0.217792172548E+00
 -0.220080600092E+00 -0.222210081455E+00 -0.224166295151E+00 -0.225934323988E+00 -0.227498660250E+00
 -0.228843214502E+00 -0.229951328435E+00 -0.230805792132E+00 -0.231388866204E+00 -0.231682309227E+00
 -0.231667410969E+00 -0.231325031869E+00 -0.230635649279E+00 -0.229579410978E+00 -0.228136196479E+00
 -0.226285686654E+00 -0.224007442195E+00 -0.221280991455E+00 -0.218085928154E+00 -0.214402019457E+00
 -0.210209324905E+00 -0.205488326605E+00 -0.200220071107E+00 -0.194386323274E+00 -0.187969732442E+00
 -0.180954011053E+00 -0.173324125867E+00 -0.165066501752E+00 -0.156169237913E+00 -0.146622336321E+00
 -0.136417941883E+00 -0.125550593783E+00 -0.114017487175E+00 -0.101818744215E+00 -0.889576931677E-01
 -0.754411540585E-01 -0.612797290440E-01 -0.464880953801E-01 -0.310852985375E-01 -0.150950427050E-01
  0.145402437160E-02  0.185280355182E-01  0.360876407198E-01  0.540877597907E-01  0.724773548468E-01
  0.911992264402E-01  0.110189837473E+00  0.129379169483E+00  0.148690616625E+00  0.168040923553E+00
  0.187340174393E+00  0.206491840755E+00  0.225392897234E+00  0.243934012839E+00  0.261999826262E+00
  0.279469311896E+00  0.296216242212E+00  0.312109750832E+00  0.327014999651E+00  0.340793952629E+00
  0.353306258282E+00  0.364410242083E+00  0.373964008967E+00  0.381826654725E+00  0.387859583540E+00
  0.391927927192E+00  0.393902059708E+00  0.393659199265E+00  0.391085087164E+00  0.386075731470E+00
  0.378539200623E+00  0.368397449842E+00  0.355588160617E+00  0.340066570997E+00  0.321807271813E+00
  0.300805941439E+00  0.277080989500E+00  0.250675077833E+00  0.221656485549E+00  0.190120283940E+00
  0.156189286622E+00  0.120014740457E+00  0.817767235213E-01  0.416842175459E-01 -0.251761182720E-04
 -0.430859052453E-01 -0.872055430150E-01 -0.132066283859E+00 -0.177326851708E+00 -0.222624785890E+00
 -0.267579041742E+00 -0.311792832321E+00 -0.354856667503E+00 -0.396351627161E+00 -0.435853008725E+00
 -0.472934534943E+00 -0.507173203922E+00 -0.538154633721E+00 -0.565478581846E+00 -0.588764350475E+00
 -0.607655944399E+00 -0.621826964974E+00 -0.630985241384E+00 -0.634877164054E+00 -0.633291644572E+00
 -0.626063607583E+00 -0.613076924838E+00 -0.594266721822E+00 -0.569621015115E+00 -0.539181664140E+00
 -0.503044642264E+00 -0.461359647414E+00 -0.414329082811E+00 -0.362206444730E+00 -0.305294157365E+00
 -0.243940895948E+00 -0.178538437809E+00 -0.109518079680E+00 -0.373466567287E-01  0.374778017188E-01
  0.114430744901E+00  0.192966063311E+00  0.272521297233E+00  0.352523038822E+00  0.432392466580E+00
  0.511550944793E+00  0.589425619428E+00  0.665454949175E+00  0.739094126975E+00  0.809820364349E+00
  0.877138016822E+00  0.940583496682E+00  0.999729825579E+00  0.105419051918E+01  0.110362232878E+01
  0.114772634146E+01  0.118624725419E+01  0.121897133149E+01  0.124572429779E+01  0.126637060121E+01
  0.128081476977E+01  0.128900439549E+01  0.129093345024E+01  0.128664468674E+01  0.127623043753E+01
  0.125983174157E+01  0.123763604175E+01  0.120987374139E+01  0.117681384597E+01  0.113875884478E+01
  0.109603893735E+01  0.104900570117E+01  0.998025288327E+00  0.943471249599E+00  0.885717058910E+00
  0.825128416315E+00  0.762055369516E+00  0.696824267306E+00  0.000000000000E+00  0.000000000000E+00
  0.000000000000E+00  0.000000000000E+00  0.000000000000E+00  0.000000000000E+00  0.000000000000E+00
  0.000000000000E+00  0.000000000000E+00  0.000000000000E+00  0.000000000000E+00  0.000000000000E+00
  0.000000000000E+00  0.000000000000E+00  0.000000000000E+00  0.000000000000E+00  0.000000000000E+00
  0.000000000000E+00  0.000000000000E+00  0.000000000000E+00  0.000000000000E+00  0.000000000000E+00
  0.000000000000E+00  0.000000000000E+00  0.000000000000E+00  0.000000000000E+00  0.000000000000E+00
  0.000000000000E+00  0.000000000000E+00  0.000000000000E+00  0.000000000000E+00  0.000000000000E+00
  0.000000000000E+00  0.000000000000E+00  0.000000000000E+00  0.000000000000E+00  0.000000000000E+00
  0.000000000000E+00  0.000000000000E+00  0.000000000000E+00  0.000000000000E+00  0.000000000000E+00
  0.000000000000E+00  0.000000000000E+00  0.000000000000E+00  0.000000000000E+00  0.000000000000E+00
  0.000000000000E+00  0.000000000000E+00
 pseudo wavefunction
  0.956571442021E-08  0.101979354294E-07  0.108719414414E-07  0.115904941270E-07  0.123565376828E-07
  0.131732108942E-07  0.140438599965E-07  0.149720523859E-07  0.159615912359E-07  0.170165310814E-07
  0.181411944307E-07  0.193401894775E-07  0.206184289817E-07  0.219811503995E-07  0.234339373429E-07
  0.249827424584E-07  0.266339118170E-07  0.283942109168E-07  0.302708524038E-07  0.322715256251E-07
  0.344044281351E-07  0.366782992842E-07  0.391024560274E-07  0.416868310993E-07  0.444420137130E-07
  0.473792929478E-07  0.505107040051E-07  0.538490775219E-07  0.574080921423E-07  0.612023305646E-07
  0.652473392927E-07  0.695596923358E-07  0.741570591189E-07  0.790582768816E-07  0.842834278612E-07
  0.898539215782E-07  0.957925825591E-07  0.102123743858E-06  0.108873346757E-06  0.116069047061E-06
  0.123740328413E-06  0.131918623096E-06  0.140637440833E-06  0.149932506079E-06  0.159841904406E-06
  0.170406238549E-06  0.181668794776E-06  0.193675720245E-06  0.206476212089E-06  0.220122718996E-06
  0.234671156110E-06  0.250181134139E-06  0.266716203602E-06  0.284344115222E-06  0.303137097524E-06
  0.323172152786E-06  0.344531372545E-06  0.367302273959E-06  0.391578158400E-06  0.417458493741E-06
  0.445049321917E-06  0.474463693421E-06  0.505822130510E-06  0.539253121036E-06  0.574893644904E-06
  0.612889735336E-06  0.653397077217E-06  0.696581645003E-06  0.742620382770E-06  0.791701929230E-06
  0.844027390644E-06  0.899811164835E-06  0.959281819650E-06  0.102268302949E-05  0.109027457372E-05
  0.116233340111E-05  0.123915476453E-05  0.132105343079E-05  0.140836497027E-05  0.150144713191E-05
  0.160068130904E-05  0.170647410204E-05  0.181925898434E-05  0.193949807852E-05  0.206768404974E-05
  0.220434212438E-05  0.235003224203E-05  0.250535134977E-05  0.267093584804E-05  0.284746419811E-05
  0.303565970201E-05  0.323629346606E-05  0.345018756033E-05  0.367821838685E-05  0.392132027051E-05
  0.418048928719E-05  0.445678734491E-05  0.475134653477E-05  0.506537376935E-05  0.540015572765E-05
  0.575706412694E-05  0.613756134290E-05  0.654320640122E-05  0.697566136518E-05  0.743669814538E-05
  0.792820575943E-05  0.845219807151E-05  0.901082204329E-05  0.960636653022E-05  0.102412716590E-04
  0.109181388251E-04  0.116397413500E-04  0.124090358443E-04  0.132291743201E-04  0.141035171047E-04
  0.150356466077E-04  0.160293819971E-04  0.170887948461E-04  0.182182258132E-04  0.194223024246E-04
  0.207059580321E-04  0.220744520228E-04  0.235333913646E-04  0.250887535759E-04  0.267469112116E-04
  0.285146579681E-04  0.303992365127E-04  0.324083681512E-04  0.345502844565E-04  0.368337609854E-04
  0.392681532242E-04  0.418634349083E-04  0.446302388725E-04  0.475799006015E-04  0.507245046548E-04
  0.540769341604E-04  0.576509235755E-04  0.614611149337E-04  0.655231178052E-04  0.698535732181E-04
  0.744702218004E-04  0.793919764215E-04  0.846389996307E-04  0.902327862075E-04  0.961962511635E-04
  0.102553823552E-03  0.109331546473E-03  0.116557183674E-03  0.124260333192E-03  0.132472548493E-03
  0.141227467602E-03  0.150560950760E-03  0.160511227154E-03  0.171119051334E-03  0.182427869944E-03
  0.194483999442E-03  0.207336815550E-03  0.221038955187E-03  0.235646531712E-03  0.251219364355E-03
  0.267821222766E-03  0.285520087676E-03  0.304388428719E-03  0.324503500561E-03  0.345947658512E-03
  0.368808694920E-03  0.393180197694E-03  0.419161932410E-03  0.446860249551E-03  0.476388518508E-03
  0.507867590105E-03  0.541426289507E-03  0.577201941491E-03  0.615340930195E-03  0.655999295577E-03
  0.699343369001E-03  0.745550450456E-03  0.794809530144E-03  0.847322057300E-03  0.903302759297E-03
  0.962980514302E-03  0.102659928093E-02  0.109441908860E-02  0.116671709243E-02  0.124378869691E-02
  0.132594875271E-02  0.141353283130E-02  0.150689858236E-02  0.160642717932E-02  0.171252485846E-02
  0.182562455775E-02  0.194618766145E-02  0.207470585735E-02  0.221170311369E-02  0.235773778309E-02
  0.251340484160E-02  0.267933827114E-02  0.285621359421E-02  0.304475057028E-02  0.324571606358E-02
  0.345992709301E-02  0.368825407482E-02  0.393162426991E-02  0.419102544777E-02  0.446750978000E-02
  0.476219797673E-02  0.507628368017E-02  0.541103813001E-02  0.576781511610E-02  0.614805623469E-02
  0.655329646487E-02  0.698517008289E-02  0.744541693242E-02  0.793588906961E-02  0.845855780236E-02
  0.901552114387E-02  0.960901170080E-02  0.102414050173E-01  0.109152283956E-01  0.116331702159E-01
  0.123980897753E-01  0.132130276693E-01  0.140812167357E-01  0.150060935826E-01  0.159913107197E-01
  0.170407493126E-01  0.181585325762E-01  0.193490398241E-01  0.206169211859E-01  0.219671130019E-01
  0.234048539023E-01  0.249357015713E-01  0.265655501922E-01  0.283006485632E-01  0.301476188641E-01
  0.321134760480E-01  0.342056478181E-01  0.364319951389E-01  0.388008332168E-01  0.413209528675E-01
  0.440016421691E-01  0.468527082766E-01  0.498844992499E-01  0.531079257168E-01  0.565344821616E-01
  0.601762675910E-01  0.640460052890E-01  0.681570613234E-01  0.725234614169E-01  0.771599057323E-01
  0.820817810601E-01  0.873051698203E-01  0.928468552118E-01  0.987243217515E-01  0.104955750351E+00
  0.111560006968E+00  0.118556623760E+00  0.125965771536E+00  0.133808222174E+00  0.142105299534E+00
  0.150878817241E+00  0.160151001554E+00  0.169944397400E+00  0.180281755470E+00  0.191185898130E+00
  0.202679561753E+00  0.214785212938E+00  0.227524835979E+00  0.240919688854E+00  0.254990024977E+00
  0.269754777969E+00  0.285231206794E+00  0.301434498796E+00  0.318377328473E+00  0.336069370264E+00
  0.354516764237E+00  0.373721534403E+00  0.393680960413E+00  0.414386904778E+00  0.435825099380E+00
  0.457974397092E+00  0.480805996756E+00  0.504282652626E+00  0.528357882714E+00  0.552975194281E+00
  0.578067348967E+00  0.603555694709E+00  0.629349596615E+00  0.655346004113E+00  0.681429196848E+00
  0.707470756597E+00  0.733329816494E+00  0.758853641607E+00  0.783878595579E+00  0.808231545861E+00
  0.831731753868E+00  0.854193285003E+00  0.875427955393E+00  0.895248805905E+00  0.913474057856E+00
  0.929931457255E+00  0.944462854245E+00  0.956928790724E+00  0.967212782341E+00  0.975224882558E+00
  0.980904010175E+00  0.984218413823E+00  0.985163547768E+00  0.983756557356E+00  0.980026539650E+00
  0.973999781008E+00  0.965679310448E+00  0.955018382704E+00  0.941883617397E+00  0.926122263691E+00
  0.907824587069E+00  0.887171866708E+00  0.864357096377E+00  0.839582924494E+00  0.813059604795E+00
  0.785002985653E+00  0.755632519674E+00  0.725169296251E+00  0.693834072638E+00  0.661845285929E+00
  0.629417040157E+00  0.596757067527E+00  0.564064695608E+00  0.531528872729E+00  0.499326327761E+00
  0.467619957273E+00  0.436557529085E+00  0.406270778961E+00  0.376874947833E+00  0.348468770812E+00
  0.321134891066E+00  0.294940637099E+00  0.269939075143E+00  0.246170231510E+00  0.223662374253E+00
  0.202433249681E+00  0.182491187081E+00  0.163836013088E+00  0.146459752289E+00  0.130347127811E+00
  0.115475908275E+00  0.101817169663E+00  0.893355485611E-01  0.779895566081E-01  0.677320080941E-01
  0.585105884989E-01  0.502685670032E-01  0.429456348701E-01  0.364788365999E-01  0.308035525670E-01
  0.258544897833E-01  0.215666401275E-01  0.178761712390E-01  0.147212228577E-01  0.120425895306E-01
  0.978427848541E-02  0.789393855483E-02  0.632316204986E-02  0.502766629405E-02  0.396736516392E-02
  0.310634349502E-02  0.241274873364E-02
 ae wavefunction
  0.330145000027E-05  0.349557416464E-05  0.370046999017E-05  0.391677447260E-05  0.414516073164E-05
  0.438634018754E-05  0.464106486507E-05  0.491012983416E-05  0.519437579438E-05  0.549469181367E-05
  0.581201822973E-05  0.614734972467E-05  0.650173858482E-05  0.687629815543E-05  0.727220650349E-05
  0.769071030181E-05  0.813312894892E-05  0.860085893630E-05  0.909537848274E-05  0.961825244934E-05
  0.101711375549E-04  0.107557879086E-04  0.113740608803E-04  0.120279233299E-04  0.127194582196E-04
  0.134508716289E-04  0.142245002022E-04  0.150428190509E-04  0.159084501486E-04  0.168241712302E-04
  0.177929252527E-04  0.188178304297E-04  0.199021908896E-04  0.210495079891E-04  0.222634923290E-04
  0.235480765080E-04  0.249074286708E-04  0.263459668907E-04  0.278683744455E-04  0.294796160387E-04
  0.311849550272E-04  0.329899717175E-04  0.349005827965E-04  0.369230619701E-04  0.390640618812E-04
  0.413306373911E-04  0.437302703055E-04  0.462708956375E-04  0.489609295022E-04  0.518092987441E-04
  0.548254724051E-04  0.580194951474E-04  0.614020227520E-04  0.649843598204E-04  0.687784998172E-04
  0.727971675953E-04  0.770538645606E-04  0.815629166300E-04  0.863395251661E-04  0.913998210585E-04
  0.967609221508E-04  0.102440994215E-03  0.108459315693E-03  0.114836346417E-03  0.121593800578E-03
  0.128754724171E-03  0.136343577203E-03  0.144386320936E-03  0.152910510481E-03  0.161945393054E-03
  0.171522012221E-03  0.181673318510E-03  0.192434286735E-03  0.203842040456E-03  0.215935983969E-03
  0.228757942276E-03  0.242352309507E-03  0.256766206248E-03  0.272049646336E-03  0.288255713618E-03
  0.305440749268E-03  0.323664550247E-03  0.342990579541E-03  0.363486188826E-03  0.385222854263E-03
  0.408276426138E-03  0.432727393107E-03  0.458661161852E-03  0.486168352967E-03  0.515345113956E-03
  0.546293450236E-03  0.579121575121E-03  0.613944279744E-03  0.650883323976E-03  0.690067849410E-03
  0.731634815497E-03  0.775729460033E-03  0.822505785178E-03  0.872127070250E-03  0.924766412563E-03
  0.980607297686E-03  0.103984420042E-02  0.110268321795E-02  0.116934273660E-02  0.124005413364E-02
  0.131506251571E-02  0.139462749528E-02  0.147902400690E-02  0.156854316455E-02  0.166349316190E-02
  0.176420021700E-02  0.187100956289E-02  0.198428648585E-02  0.210441741274E-02  0.223181104899E-02
  0.236689956865E-02  0.251013985801E-02  0.266201481394E-02  0.282303469832E-02  0.299373854958E-02
  0.317469565233E-02  0.336650706573E-02  0.356980721144E-02  0.378526552115E-02  0.401358814402E-02
  0.425551971364E-02  0.451184517397E-02  0.478339166320E-02  0.507103045415E-02  0.537567894916E-02
  0.569830272702E-02  0.603991763861E-02  0.640159194763E-02  0.678444851137E-02  0.718966699633E-02
  0.761848612190E-02  0.807220592467E-02  0.855219003454E-02  0.905986795261E-02  0.959673731940E-02
  0.101643661605E-01  0.107643950948E-01  0.113985394891E-01  0.120685915409E-01  0.127764222676E-01
  0.135239833812E-01  0.143133090219E-01  0.151465173226E-01  0.160258117746E-01  0.169534823593E-01
  0.179319064103E-01  0.189635491645E-01  0.200509639585E-01  0.211967920221E-01  0.224037618180E-01
  0.236746878699E-01  0.250124690202E-01  0.264200860514E-01  0.279005986006E-01  0.294571412945E-01
  0.310929190228E-01  0.328112012671E-01  0.346153153944E-01  0.365086388207E-01  0.384945899444E-01
  0.405766177453E-01  0.427581899378E-01  0.450427795666E-01  0.474338499242E-01  0.499348376701E-01
  0.525491340253E-01  0.552800639168E-01  0.581308629409E-01  0.611046520180E-01  0.642044096106E-01
  0.674329413773E-01  0.707928471412E-01  0.742864850569E-01  0.779159328663E-01  0.816829461452E-01
  0.855889134543E-01  0.896348083259E-01  0.938211380335E-01  0.981478891155E-01  0.102614469652E+00
  0.107219648322E+00  0.111961490302E+00  0.116837290112E+00  0.121843501558E+00  0.126975664971E+00
  0.132228331999E+00  0.137594988276E+00  0.143067974364E+00  0.148638405441E+00  0.154296090284E+00
  0.160029450191E+00  0.165825438575E+00  0.171669462027E+00  0.177545303733E+00  0.183435050159E+00
  0.189319021951E+00  0.195175709996E+00  0.200981717541E+00  0.206711709312E+00  0.212338368591E+00
  0.217832363399E+00  0.223162323263E+00  0.228294828527E+00  0.233194414707E+00  0.237823594967E+00
  0.242142904155E+00  0.246110967972E+00  0.249684600702E+00  0.252818934457E+00  0.255467582226E+00
  0.257582836180E+00  0.259115901975E+00  0.260017169306E+00  0.260236518862E+00  0.259723665873E+00
  0.258428540557E+00  0.256301705636E+00  0.253294810826E+00  0.249361083652E+00  0.244455855434E+00
  0.238537120659E+00  0.231566127337E+00  0.223507995277E+00  0.214332358473E+00  0.204014027035E+00
  0.192533663166E+00  0.179878464831E+00  0.166042849712E+00  0.151029131099E+00  0.134848176327E+00
  0.117520037412E+00  0.990745426625E-01  0.795518372655E-01  0.590028602753E-01  0.374897450217E-01
  0.150861298007E-01 -0.812263430447E-02 -0.320393914940E-01 -0.565552179945E-01 -0.815495997724E-01
 -0.106890762224E+00 -0.132436159628E+00 -0.158033125268E+00 -0.183519671288E+00 -0.208725411538E+00
 -0.233472567315E+00 -0.257577017057E+00 -0.280849379795E+00 -0.303096180759E+00 -0.324121213305E+00
 -0.343727229174E+00 -0.361718005411E+00 -0.377900680407E+00 -0.392088151996E+00 -0.404101371703E+00
 -0.413771483494E+00 -0.420941830620E+00 -0.425469859658E+00 -0.427228921934E+00 -0.426109943376E+00
 -0.422022919911E+00 -0.414898196747E+00 -0.404687500544E+00 -0.391364708190E+00 -0.374926348973E+00
 -0.355391847112E+00 -0.332803518163E+00 -0.307226336595E+00 -0.278747493299E+00 -0.247475761694E+00
 -0.213540689872E+00 -0.177091633669E+00 -0.138296643138E+00 -0.973412115059E-01 -0.544268938789E-01
 -0.976980093576E-02  0.364010265322E-01  0.838453548500E-01  0.132313595405E+00  0.181548727939E+00
  0.231288290002E+00  0.281266412154E+00  0.331215881531E+00  0.380870225062E+00  0.429965813693E+00
  0.478243993969E+00  0.525453237171E+00  0.571351242088E+00  0.615706827070E+00  0.658301328817E+00
  0.698929178424E+00  0.737397479103E+00  0.773524822940E+00  0.807140083824E+00  0.838082131490E+00
  0.866201052308E+00  0.891360730791E+00  0.913442061113E+00  0.932345982609E+00  0.947995843460E+00
  0.960338970080E+00  0.969347539746E+00  0.975018899665E+00  0.977375444653E+00  0.976464121994E+00
  0.972355599411E+00  0.965143129659E+00  0.954941143061E+00  0.941883617397E+00  0.926122263691E+00
  0.907824587069E+00  0.887171866708E+00  0.864357096377E+00  0.839582924494E+00  0.813059604795E+00
  0.785002985653E+00  0.755632519674E+00  0.725169296251E+00  0.693834072638E+00  0.661845285929E+00
  0.629417040157E+00  0.596757067527E+00  0.564064695608E+00  0.531528872729E+00  0.499326327761E+00
  0.467619957273E+00  0.436557529085E+00  0.406270778961E+00  0.376874947833E+00  0.348468770812E+00
  0.321134891066E+00  0.294940637099E+00  0.269939075143E+00  0.246170231510E+00  0.223662374253E+00
  0.202433249681E+00  0.182491187081E+00  0.163836013088E+00  0.146459752289E+00  0.130347127811E+00
  0.115475908275E+00  0.101817169663E+00  0.893355485611E-01  0.779895566081E-01  0.677320080941E-01
  0.585105884989E-01  0.502685670032E-01  0.429456348701E-01  0.364788365999E-01  0.308035525670E-01
  0.258544897833E-01  0.215666401275E-01  0.178761712390E-01  0.147212228577E-01  0.120425895306E-01
  0.978427848541E-02  0.789393855483E-02  0.632316204986E-02  0.502766629405E-02  0.396736516392E-02
  0.310634349502E-02  0.241274873364E-02
 pseudo wavefunction
  0.144509143645E-07  0.154060099549E-07  0.164242301034E-07  0.175097468633E-07  0.186670080290E-07
  0.199007553603E-07  0.212160440112E-07  0.226182632431E-07  0.241131585063E-07  0.257068549820E-07
  0.274058826791E-07  0.292172031903E-07  0.311482382171E-07  0.332068999785E-07  0.354016236312E-07
  0.377414018318E-07  0.402358215827E-07  0.428951035146E-07  0.457301437639E-07  0.487525586188E-07
  0.519747321157E-07  0.554098667818E-07  0.590720377305E-07  0.629762503334E-07  0.671385017030E-07
  0.715758462388E-07  0.763064655068E-07  0.813497427357E-07  0.867263422383E-07  0.924582940809E-07
  0.985690843496E-07  0.105083751382E-06  0.112028988359E-06  0.119433252677E-06  0.127326882551E-06
  0.135742221318E-06  0.144713749967E-06  0.154278228414E-06  0.164474846126E-06  0.175345382697E-06
  0.186934379031E-06  0.199289319847E-06  0.212460828242E-06  0.226502873113E-06  0.241472990288E-06
  0.257432518276E-06  0.274446849592E-06  0.292585698694E-06  0.311923387638E-06  0.332539150594E-06
  0.354517458508E-06  0.377948365208E-06  0.402927876392E-06  0.429558342995E-06  0.457948880570E-06
  0.488215816366E-06  0.520483165975E-06  0.554883141465E-06  0.591556693106E-06  0.630654086898E-06
  0.672335520267E-06  0.716771778456E-06  0.764144934295E-06  0.814649094225E-06  0.868491193625E-06
  0.925891844699E-06  0.987086240417E-06  0.105232511818E-05  0.112187578718E-05  0.119602322367E-05
  0.127507123865E-05  0.135934372260E-05  0.144918597270E-05  0.154496610752E-05  0.164707657543E-05
  0.175593576252E-05  0.187198970694E-05  0.199571392644E-05  0.212761536673E-05  0.226823447865E-05
  0.241814743252E-05  0.257796847894E-05  0.274835246558E-05  0.292999752031E-05  0.312364791162E-05
  0.333009709817E-05  0.355019097980E-05  0.378483136347E-05  0.403497965823E-05  0.430166081438E-05
  0.458596752300E-05  0.488906469300E-05  0.521219422410E-05  0.555668009517E-05  0.592393378898E-05
  0.631546007531E-05  0.673286317642E-05  0.717785333986E-05  0.765225384577E-05  0.815800847717E-05
  0.869718948405E-05  0.927200607372E-05  0.988481346230E-05  0.105381225244E-04  0.112346100803E-04
  0.119771298637E-04  0.127687242130E-04  0.136126365365E-04  0.145123246007E-04  0.154714746969E-04
  0.164940167435E-04  0.175841403875E-04  0.187463121687E-04  0.199852938190E-04  0.213061617706E-04
  0.227143279533E-04  0.242155619666E-04  0.258160147156E-04  0.275222436108E-04  0.293412394307E-04
  0.312804549611E-04  0.333478355263E-04  0.355518515370E-04  0.379015331895E-04  0.404065074573E-04
  0.430770375262E-04  0.459240648362E-04  0.489592538990E-04  0.521950400783E-04  0.556446805255E-04
  0.593223084805E-04  0.632429911598E-04  0.674227914687E-04  0.718788337891E-04  0.766293741139E-04
  0.816938748126E-04  0.870930843363E-04  0.928491221854E-04  0.989855694895E-04  0.105527565569E-03
  0.112501910873E-03  0.119937176713E-03  0.127863822245E-03  0.136314319170E-03  0.145323284673E-03
  0.154927623132E-03  0.165166677186E-03  0.176082388767E-03  0.187719470767E-03  0.200125590025E-03
  0.213351562398E-03  0.227451560689E-03  0.242483336305E-03  0.258508455524E-03  0.275592551349E-03
  0.293805591967E-03  0.313222166915E-03  0.333921792096E-03  0.355989234911E-03  0.379514860807E-03
  0.404595002665E-03  0.431332354508E-03  0.459836391148E-03  0.490223815452E-03  0.522619035055E-03
  0.557154670435E-03  0.593972096421E-03  0.633222019300E-03  0.675065091879E-03  0.719672568951E-03
  0.767227005836E-03  0.817923002786E-03  0.871967998253E-03  0.929583114202E-03  0.991004056857E-03
  0.105648207649E-02  0.112628499007E-02  0.120069827087E-02  0.128002620936E-02  0.136459315002E-02
  0.145474480890E-02  0.155084967727E-02  0.165330051677E-02  0.176251595203E-02  0.187894216698E-02
  0.200305471148E-02  0.213536042539E-02  0.227639948741E-02  0.242674759679E-02  0.258701829633E-02
  0.275786544539E-02  0.293998585265E-02  0.313412207851E-02  0.334106541768E-02  0.356165907343E-02
  0.379680153512E-02  0.404745017182E-02  0.431462505515E-02  0.459941302548E-02  0.490297201623E-02
  0.522653565194E-02  0.557141813653E-02  0.593901944910E-02  0.633083086544E-02  0.674844082448E-02
  0.719354115957E-02  0.766793371586E-02  0.817353737558E-02  0.871239551437E-02  0.928668391245E-02
  0.989871914577E-02  0.105509674829E-01  0.112460543148E-01  0.119867741443E-01  0.127761011655E-01
  0.136172004605E-01  0.145134398449E-01  0.154684023918E-01  0.164858996654E-01  0.175699856952E-01
  0.187249717217E-01  0.199554417445E-01  0.212662689027E-01  0.226626327157E-01  0.241500372137E-01
  0.257343299810E-01  0.274217221364E-01  0.292188092688E-01  0.311325933436E-01  0.331705055892E-01
  0.353404303665E-01  0.376507300176E-01  0.401102706785E-01  0.427284490331E-01  0.455152199691E-01
  0.484811250836E-01  0.516373219681E-01  0.549956141833E-01  0.585684818059E-01  0.623691124098E-01
  0.664114323053E-01  0.707101378287E-01  0.752807264320E-01  0.801395272758E-01  0.853037309765E-01
  0.907914180964E-01  0.966215859023E-01  0.102814172836E+00  0.109390080063E+00  0.116371189359E+00
  0.123780376502E+00  0.131641519203E+00  0.139979498503E+00  0.148820192377E+00  0.158190460194E+00
  0.168118116428E+00  0.178631891915E+00  0.189761380674E+00  0.201536970143E+00  0.213989752436E+00
  0.227151413975E+00  0.241054100625E+00  0.255730255169E+00  0.271212423728E+00  0.287533027457E+00
  0.304724095595E+00  0.322816955744E+00  0.341841877016E+00  0.361827661570E+00  0.382801179958E+00
  0.404786845682E+00  0.427806024504E+00  0.451876374255E+00  0.477011111343E+00  0.503218200764E+00
  0.530499467337E+00  0.558849627072E+00  0.588255239142E+00  0.618693580919E+00  0.650131451025E+00
  0.682523908335E+00  0.715812958523E+00  0.749926203974E+00  0.784775477906E+00  0.820255489144E+00
  0.856242510378E+00  0.892593149672E+00  0.929143252424E+00  0.965706988704E+00  0.100207618852E+01
  0.103801999478E+01  0.107328490970E+01  0.110759531471E+01  0.114065454510E+01  0.117214659790E+01
  0.120173854317E+01  0.122908369329E+01  0.125382556010E+01  0.127560259424E+01  0.129405365231E+01
  0.130882407449E+01  0.131957217641E+01  0.132597586519E+01  0.132773898109E+01  0.132459684834E+01
  0.131632039766E+01  0.130271811057E+01  0.128363494793E+01  0.125894738549E+01  0.122855371620E+01
  0.119235892974E+01  0.115025378572E+01  0.110208820450E+01  0.104763985231E+01  0.986675957338E+00
  0.919269537359E+00  0.845600439068E+00  0.765870789805E+00  0.000000000000E+00  0.000000000000E+00
  0.000000000000E+00  0.000000000000E+00  0.000000000000E+00  0.000000000000E+00  0.000000000000E+00
  0.000000000000E+00  0.000000000000E+00  0.000000000000E+00  0.000000000000E+00  0.000000000000E+00
  0.000000000000E+00  0.000000000000E+00  0.000000000000E+00  0.000000000000E+00  0.000000000000E+00
  0.000000000000E+00  0.000000000000E+00  0.000000000000E+00  0.000000000000E+00  0.000000000000E+00
  0.000000000000E+00  0.000000000000E+00  0.000000000000E+00  0.000000000000E+00  0.000000000000E+00
  0.000000000000E+00  0.000000000000E+00  0.000000000000E+00  0.000000000000E+00  0.000000000000E+00
  0.000000000000E+00  0.000000000000E+00  0.000000000000E+00  0.000000000000E+00  0.000000000000E+00
  0.000000000000E+00  0.000000000000E+00  0.000000000000E+00  0.000000000000E+00  0.000000000000E+00
  0.000000000000E+00  0.000000000000E+00  0.000000000000E+00  0.000000000000E+00  0.000000000000E+00
  0.000000000000E+00  0.000000000000E+00
 ae wavefunction
  0.481319222438E-05  0.509620640294E-05  0.539492461552E-05  0.571027554017E-05  0.604324052020E-05
  0.639485673737E-05  0.676622057093E-05  0.715849115577E-05  0.757289415037E-05  0.801072572966E-05
  0.847335681486E-05  0.896223755612E-05  0.947890208495E-05  0.100249735508E-04  0.106021694613E-04
  0.112123073447E-04  0.118573107561E-04  0.125392156448E-04  0.132601771108E-04  0.140224765700E-04
  0.148285293580E-04  0.156808927960E-04  0.165822747498E-04  0.175355427105E-04  0.185437334353E-04
  0.196100631748E-04  0.207379385304E-04  0.219309679750E-04  0.231929740925E-04  0.245280065516E-04
  0.259403558991E-04  0.274345681886E-04  0.290154605200E-04  0.306881375327E-04  0.324580089238E-04
  0.343308080422E-04  0.363126116399E-04  0.384098608406E-04  0.406293834106E-04  0.429784174081E-04
  0.454646362984E-04  0.480961756293E-04  0.508816613586E-04  0.538302399431E-04  0.569516102936E-04
  0.602560577160E-04  0.637544899603E-04  0.674584755089E-04  0.713802842445E-04  0.755329306438E-04
  0.799302196551E-04  0.845867954253E-04  0.895181930537E-04  0.947408935566E-04  0.100272382247E-03
  0.106131210730E-03  0.112337062750E-03  0.118910824110E-03  0.125874656928E-03  0.133252078479E-03
  0.141068044925E-03  0.149349040205E-03  0.158123170420E-03  0.167420264028E-03  0.177271978217E-03
  0.187711911818E-03  0.198775725149E-03  0.210501267218E-03  0.222928710705E-03  0.236100695216E-03
  0.250062479261E-03  0.264862101511E-03  0.280550551849E-03  0.297181952822E-03  0.314813752062E-03
  0.333506926358E-03  0.353326198029E-03  0.374340264305E-03  0.396622040486E-03  0.420248917646E-03
  0.445303035716E-03  0.471871572827E-03  0.500047051807E-03  0.529927664812E-03  0.561617617079E-03
  0.595227490888E-03  0.630874630798E-03  0.668683551353E-03  0.708786368461E-03  0.751323255702E-03
  0.796442926905E-03  0.844303146381E-03  0.895071268230E-03  0.948924806265E-03  0.100605203609E-02
  0.106665263093E-02  0.113093833301E-02  0.119913366206E-02  0.127147666295E-02  0.134821969416E-02
  0.142963025915E-02  0.151599188252E-02  0.160760503306E-02  0.170478809581E-02  0.180787839523E-02
  0.191723327167E-02  0.203323121343E-02  0.215627304667E-02  0.228678318541E-02  0.242521094393E-02
  0.257203191397E-02  0.272774940902E-02  0.289289597784E-02  0.306803498970E-02  0.325376229337E-02
  0.345070795210E-02  0.365953805656E-02  0.388095661766E-02  0.411570754110E-02  0.436457668515E-02
  0.462839400307E-02  0.490803577132E-02  0.520442690440E-02  0.551854335667E-02  0.585141461149E-02
  0.620412625706E-02  0.657782264823E-02  0.697370965278E-02  0.739305748005E-02  0.783720358901E-02
  0.830755567208E-02  0.880559471011E-02  0.933287809279E-02  0.989104279762E-02  0.104818086195E-01
  0.111069814412E-01  0.117684565337E-01  0.124682218741E-01  0.132083614653E-01  0.139910586424E-01
  0.148185993449E-01  0.156933753354E-01  0.166178873397E-01  0.175947480808E-01  0.186266851784E-01
  0.197165438796E-01  0.208672895843E-01  0.220820101239E-01  0.233639177492E-01  0.247163507784E-01
  0.261427748498E-01  0.276467837221E-01  0.292320995563E-01  0.309025726106E-01  0.326621802724E-01
  0.345150253442E-01  0.364653334976E-01  0.385174497980E-01  0.406758341992E-01  0.429450558996E-01
  0.453297864418E-01  0.478347914345E-01  0.504649207629E-01  0.532250971518E-01  0.561203029322E-01
  0.591555648621E-01  0.623359368382E-01  0.656664803332E-01  0.691522423866E-01  0.727982309702E-01
  0.766093875464E-01  0.805905566332E-01  0.847464521888E-01  0.890816206265E-01  0.936004002731E-01
  0.983068770868E-01  0.103204836456E+00  0.108297710909E+00  0.113588523575E+00  0.119079827255E+00
  0.124773638974E+00  0.130671369913E+00  0.136773750647E+00  0.143080751648E+00  0.149591499040E+00
  0.156304185663E+00  0.163215977521E+00  0.170322915778E+00  0.177619814505E+00  0.185100154487E+00
  0.192755973456E+00  0.200577753221E+00  0.208554304274E+00  0.216672648565E+00  0.224917901239E+00
  0.233273152294E+00  0.241719349201E+00  0.250235181674E+00  0.258796969875E+00  0.267378557379E+00
  0.275951210306E+00  0.284483523963E+00  0.292941338359E+00  0.301287663928E+00  0.309482618877E+00
  0.317483379852E+00  0.325244148066E+00  0.332716133758E+00  0.339847562646E+00  0.346583708866E+00
  0.352866959409E+00  0.358636915302E+00  0.363830534514E+00  0.368382320936E+00  0.372224562757E+00
  0.375287622400E+00  0.377500279083E+00  0.378790124439E+00  0.379084011379E+00  0.378308556546E+00
  0.376390696795E+00  0.373258300010E+00  0.368840830080E+00  0.363070065168E+00  0.355880867588E+00
  0.347212002689E+00  0.337007003301E+00  0.325215075248E+00  0.311792038427E+00  0.296701296752E+00
  0.279914829003E+00  0.261414191257E+00  0.241191520128E+00  0.219250524587E+00  0.195607452654E+00
  0.170292017821E+00  0.143348268788E+00  0.114835384928E+00  0.848283790630E-01  0.534186885296E-01
  0.207146352269E-01 -0.131582646544E-01 -0.480571603825E-01 -0.838219147351E-01 -0.120275358484E+00
 -0.157223767573E+00 -0.194457574557E+00 -0.231752315819E+00 -0.268869798799E+00 -0.305559450435E+00
 -0.341559788618E+00 -0.376599960312E+00 -0.410401332165E+00 -0.442679205058E+00 -0.473144819868E+00
 -0.501507847341E+00 -0.527479432287E+00 -0.550775634685E+00 -0.571120965494E+00 -0.588251775584E+00
 -0.601919423174E+00 -0.611893254701E+00 -0.617963441865E+00 -0.619943675196E+00 -0.617673672013E+00
 -0.611021436372E+00 -0.599885210548E+00 -0.584195073134E+00 -0.563914160408E+00 -0.539039506569E+00
 -0.509602513220E+00 -0.475669067945E+00 -0.437339337131E+00 -0.394747260225E+00 -0.348059772265E+00
 -0.297475779532E+00 -0.243224909260E+00 -0.185566050646E+00 -0.124785699268E+00 -0.611961142364E-01
  0.486670556118E-02  0.730452189522E-01  0.142962704213E+00  0.214225770209E+00  0.286426995776E+00
  0.359147670760E+00  0.431960610538E+00  0.504433020683E+00  0.576129401379E+00  0.646614495897E+00
  0.715456294082E+00  0.782229076667E+00  0.846516405373E+00  0.907913816526E+00  0.966030807352E+00
  0.102049164637E+01  0.107093477978E+01  0.111701121859E+01  0.115838301042E+01  0.119472316984E+01
  0.122571787872E+01  0.125107069092E+01  0.127050763178E+01  0.128378202507E+01  0.129067833164E+01
  0.129101484432E+01  0.128464539002E+01  0.127146024913E+01  0.125138645312E+01  0.122438755793E+01
  0.119046294492E+01  0.114964669832E+01  0.110200610598E+01  0.104763985231E+01  0.986675957338E+00
  0.919269537359E+00  0.845600439068E+00  0.765870789805E+00  0.000000000000E+00  0.000000000000E+00
  0.000000000000E+00  0.000000000000E+00  0.000000000000E+00  0.000000000000E+00  0.000000000000E+00
  0.000000000000E+00  0.000000000000E+00  0.000000000000E+00  0.000000000000E+00  0.000000000000E+00
  0.000000000000E+00  0.000000000000E+00  0.000000000000E+00  0.000000000000E+00  0.000000000000E+00
  0.000000000000E+00  0.000000000000E+00  0.000000000000E+00  0.000000000000E+00  0.000000000000E+00
  0.000000000000E+00  0.000000000000E+00  0.000000000000E+00  0.000000000000E+00  0.000000000000E+00
  0.000000000000E+00  0.000000000000E+00  0.000000000000E+00  0.000000000000E+00  0.000000000000E+00
  0.000000000000E+00  0.000000000000E+00  0.000000000000E+00  0.000000000000E+00  0.000000000000E+00
  0.000000000000E+00  0.000000000000E+00  0.000000000000E+00  0.000000000000E+00  0.000000000000E+00
  0.000000000000E+00  0.000000000000E+00  0.000000000000E+00  0.000000000000E+00  0.000000000000E+00
  0.000000000000E+00  0.000000000000E+00
 pseudo wavefunction
  0.406396743188E-12  0.447344898534E-12  0.492418951668E-12  0.542034624183E-12  0.596649525395E-12
  0.656767372904E-12  0.722942638421E-12  0.795785661711E-12  0.875968279797E-12  0.964230023373E-12
  0.106138493755E-11  0.116832908987E-11  0.128604883478E-11  0.141562991089E-11  0.155826745482E-11
  0.171527702401E-11  0.188810673026E-11  0.207835059574E-11  0.228776325479E-11  0.251827613708E-11
  0.277201528130E-11  0.305132094379E-11  0.335876918295E-11  0.369719561839E-11  0.406972158406E-11
  0.447978291660E-11  0.493116164434E-11  0.542802086917E-11  0.597494316324E-11  0.657697283435E-11
  0.723966244998E-11  0.796912404907E-11  0.877208551385E-11  0.965595262160E-11  0.106288773487E-10
  0.116998330570E-10  0.128786972558E-10  0.141763427028E-10  0.156047376846E-10  0.171770564008E-10
  0.189078004711E-10  0.208129326843E-10  0.229100242250E-10  0.252184167334E-10  0.277594006948E-10
  0.305564118037E-10  0.336352471128E-10  0.370243029609E-10  0.407548368750E-10  0.448612558602E-10
  0.493814337385E-10  0.543570604618E-10  0.598340266212E-10  0.658628466994E-10  0.724991249695E-10
  0.798040683371E-10  0.878450508559E-10  0.966962351239E-10  0.106439256289E-09  0.117163974978E-09
  0.128969306085E-09  0.141964131071E-09  0.156268302185E-09  0.172013747870E-09  0.189345689547E-09
  0.208423981001E-09  0.229424582726E-09  0.252541184814E-09  0.277986993375E-09  0.305996696949E-09
  0.336828631053E-09  0.370767160821E-09  0.408125303725E-09  0.449247616547E-09  0.494513373250E-09
  0.544340063035E-09  0.599187240870E-09  0.659560765986E-09  0.726017467438E-09  0.799170279764E-09
  0.879693896107E-09  0.968330990933E-09  0.106589906975E-08  0.117329800896E-08  0.129151835552E-08
  0.142165046267E-08  0.156489454638E-08  0.172257175492E-08  0.189613635386E-08  0.208718913872E-08
  0.229749219917E-08  0.252898517078E-08  0.278380312423E-08  0.306429625707E-08  0.337305156959E-08
  0.371291672458E-08  0.408702631132E-08  0.449883075574E-08  0.495212814356E-08  0.545109924983E-08
  0.600034609797E-08  0.660493440387E-08  0.727044029665E-08  0.800300174672E-08  0.880937517568E-08
  0.969699777003E-08  0.106740560734E-07  0.117495614898E-07  0.129334333945E-07  0.142365906187E-07
  0.156710521519E-07  0.172500479903E-07  0.189881411546E-07  0.209013620006E-07  0.230073560633E-07
  0.253255467962E-07  0.278773147084E-07  0.306861945488E-07  0.337780923593E-07  0.371815243954E-07
  0.409278801197E-07  0.450517116923E-07  0.495910526280E-07  0.545877685593E-07  0.600879433388E-07
  0.661423040420E-07  0.728066887893E-07  0.801425617009E-07  0.882175797334E-07  0.971062166237E-07
  0.106890449695E-06  0.117660515855E-06  0.129515743759E-06  0.142565469813E-06  0.156930046451E-06
  0.172741951999E-06  0.190147012344E-06  0.209305745678E-06  0.230394842710E-06  0.253608796000E-06
  0.279161693417E-06  0.307289192277E-06  0.338250692336E-06  0.372331727680E-06  0.409846599554E-06
  0.451141274396E-06  0.496596573784E-06  0.546631685692E-06  0.601708029416E-06  0.662333509778E-06
  0.729067199810E-06  0.802524495064E-06  0.883382787024E-06  0.972387707897E-06  0.107036000429E-05
  0.117820310311E-05  0.129691143934E-05  0.142757962236E-05  0.157141252533E-05  0.172973639037E-05
  0.190401105186E-05  0.209584339036E-05  0.230700214103E-05  0.253943419265E-05  0.279528252743E-05
  0.307690596644E-05  0.338690090247E-05  0.372812521998E-05  0.410372462223E-05  0.451716160752E-05
  0.497224736092E-05  0.547317685435E-05  0.602456747771E-05  0.663150155558E-05  0.729957313994E-05
  0.803493950850E-05  0.884437784087E-05  0.973534759268E-05  0.107160591394E-04  0.117955493189E-04
  0.129837645653E-04  0.142916523946E-04  0.157312620797E-04  0.173158554370E-04  0.190600287349E-04
  0.209798468411E-04  0.230929908321E-04  0.254189204114E-04  0.279790526203E-04  0.307969584666E-04
  0.338985792644E-04  0.373124646509E-04  0.410700344461E-04  0.452058667315E-04  0.497580147612E-04
  0.547683555782E-04  0.602829734902E-04  0.663525818710E-04  0.730329870962E-04  0.803855987934E-04
  0.884779910012E-04  0.973845192775E-04  0.107186999294E-03  0.117975452987E-03  0.129848928946E-03
  0.142916404325E-03  0.157297776341E-03  0.173124952111E-03  0.190543046515E-03  0.209711698625E-03
  0.230806518302E-03  0.254020675635E-03  0.279566647129E-03  0.307678133833E-03  0.338612168053E-03
  0.372651426850E-03  0.410106772198E-03  0.451320039561E-03  0.496667098598E-03  0.546561211914E-03
  0.601456720122E-03  0.661853083992E-03  0.728299317271E-03  0.801398846662E-03  0.881814838701E-03
  0.970276036679E-03  0.106758315444E-02  0.117461587788E-02  0.129234052911E-02  0.142181845291E-02
  0.156421518956E-02  0.172081050370E-02  0.189300934352E-02  0.208235381097E-02  0.229053622878E-02
  0.251941339665E-02  0.277102213507E-02  0.304759622159E-02  0.335158483087E-02  0.368567259641E-02
  0.405280141812E-02  0.445619414617E-02  0.489938027731E-02  0.538622380505E-02  0.592095336982E-02
  0.650819485823E-02  0.715300660327E-02  0.786091733700E-02  0.863796704625E-02  0.949075087685E-02
  0.104264662248E-01  0.114529631414E-01  0.125787981619E-01  0.138132916494E-01  0.151665887122E-01
  0.166497237225E-01  0.182746884186E-01  0.200545035164E-01  0.220032936955E-01  0.241363657434E-01
  0.264702895513E-01  0.290229815477E-01  0.318137900298E-01  0.348635817135E-01  0.381948286570E-01
  0.418316945355E-01  0.458001190406E-01  0.501278989590E-01  0.548447642490E-01  0.599824471822E-01
  0.655747423568E-01  0.716575551346E-01  0.782689357977E-01  0.854490965005E-01  0.932404079072E-01
  0.101687372287E+00  0.110836569826E+00  0.120736575017E+00  0.131437840292E+00  0.142992544583E+00
  0.155454405303E+00  0.168878453444E+00  0.183320773102E+00  0.198838208891E+00  0.215488047512E+00
  0.233327683199E+00  0.252414281043E+00  0.272804457286E+00  0.294554001626E+00  0.317717673340E+00
  0.342349110438E+00  0.368500898950E+00  0.396224857295E+00  0.425572597938E+00  0.456596434283E+00
  0.489350703722E+00  0.523893576374E+00  0.560289411160E+00  0.598611703960E+00  0.638946643555E+00
  0.681397246384E+00  0.726087976985E+00  0.773169673521E+00  0.822824483474E+00  0.875270371026E+00
  0.930764584389E+00  0.989605271035E+00  0.105213020911E+01  0.111871139831E+01  0.118974404614E+01
  0.126562832977E+01  0.134674225547E+01  0.143340403696E+01  0.152582274231E+01  0.162418080449E+01
  0.172912531017E+01  0.184152850073E+01  0.196238708839E+01  0.000000000000E+00  0.000000000000E+00
  0.000000000000E+00  0.000000000000E+00  0.000000000000E+00  0.000000000000E+00  0.000000000000E+00
  0.000000000000E+00  0.000000000000E+00  0.000000000000E+00  0.000000000000E+00  0.000000000000E+00
  0.000000000000E+00  0.000000000000E+00  0.000000000000E+00  0.000000000000E+00  0.000000000000E+00
  0.000000000000E+00  0.000000000000E+00  0.000000000000E+00  0.000000000000E+00  0.000000000000E+00
  0.000000000000E+00  0.000000000000E+00  0.000000000000E+00  0.000000000000E+00  0.000000000000E+00
  0.000000000000E+00  0.000000000000E+00  0.000000000000E+00  0.000000000000E+00  0.000000000000E+00
  0.000000000000E+00  0.000000000000E+00  0.000000000000E+00  0.000000000000E+00  0.000000000000E+00
  0.000000000000E+00  0.000000000000E+00  0.000000000000E+00  0.000000000000E+00  0.000000000000E+00
  0.000000000000E+00  0.000000000000E+00  0.000000000000E+00  0.000000000000E+00  0.000000000000E+00
  0.000000000000E+00  0.000000000000E+00
 ae wavefunction
 -0.618293099374E-09 -0.676089623828E-09 -0.738809130085E-09 -0.806910551625E-09 -0.880892693544E-09
 -0.961297966854E-09 -0.104871645491E-08 -0.114379034401E-08 -0.124721875198E-08 -0.135976299306E-08
 -0.148225231944E-08 -0.161559018485E-08 -0.176076107953E-08 -0.191883798965E-08 -0.209099054024E-08
 -0.227849388602E-08 -0.248273842102E-08 -0.270524038180E-08 -0.294765343134E-08 -0.321178131351E-08
 -0.349959168072E-08 -0.381323120404E-08 -0.415504208707E-08 -0.452758011547E-08 -0.493363439006E-08
 -0.537624889781E-08 -0.585874609864E-08 -0.638475271515E-08 -0.695822794272E-08 -0.758349429116E-08
 -0.826527133192E-08 -0.900871260591E-08 -0.981944600493E-08 -0.107036179505E-07 -0.116679417383E-07
 -0.127197504358E-07 -0.138670547793E-07 -0.151186065363E-07 -0.164839678647E-07 -0.179735872356E-07
 -0.195988825530E-07 -0.213723321566E-07 -0.233075744651E-07 -0.254195170885E-07 -0.277244563189E-07
 -0.302402079963E-07 -0.329862508441E-07 -0.359838834739E-07 -0.392563963737E-07 -0.428292603263E-07
 -0.467303328383E-07 -0.509900843180E-07 -0.556418459088E-07 -0.607220810643E-07 -0.662706831657E-07
 -0.723313016868E-07 -0.789516996812E-07 -0.861841455968E-07 -0.940858427686E-07 -0.102719400207E-06
 -0.112153348691E-06 -0.122462706557E-06 -0.133729599983E-06 -0.146043943051E-06 -0.159504183373E-06
 -0.174218119651E-06 -0.190303798095E-06 -0.207890495397E-06 -0.227119796586E-06 -0.248146777011E-06
 -0.271141298488E-06 -0.296289430708E-06 -0.323795010005E-06 -0.353881348819E-06 -0.386793110400E-06
 -0.422798364781E-06 -0.462190843554E-06 -0.505292412634E-06 -0.552455784178E-06 -0.604067490680E-06
 -0.660551146620E-06 -0.722371025454E-06 -0.790035982325E-06 -0.864103755901E-06 -0.945185685851E-06
 -0.103395188605E-05 -0.113113691731E-05 -0.123754600784E-05 -0.135406187394E-05 -0.148165219868E-05
 -0.162137783170E-05 -0.177440177933E-05 -0.194199906056E-05 -0.212556751205E-05 -0.232663963265E-05
 -0.254689556669E-05 -0.278817733488E-05 -0.305250443158E-05 -0.334209091833E-05 -0.365936415597E-05
 -0.400698533084E-05 -0.438787194483E-05 -0.480522245548E-05 -0.526254326870E-05 -0.576367830634E-05
 -0.631284139086E-05 -0.691465171174E-05 -0.757417266259E-05 -0.829695436467E-05 -0.908908022076E-05
 -0.995721787542E-05 -0.109086749910E-04 -0.119514602866E-04 -0.130943503260E-04 -0.143469625874E-04
 -0.157198353905E-04 -0.172245153126E-04 -0.188736527789E-04 -0.206811065718E-04 -0.226620580734E-04
 -0.248331361201E-04 -0.272125534328E-04 -0.298202556615E-04 -0.326780841788E-04 -0.358099538498E-04
 -0.392420471126E-04 -0.430030258152E-04 -0.471242623760E-04 -0.516400919667E-04 -0.565880875549E-04
 -0.620093597965E-04 -0.679488839295E-04 -0.744558559928E-04 -0.815840808820E-04 -0.893923949502E-04
 -0.979451260780E-04 -0.107312594358E-03 -0.117571656786E-03 -0.128806299604E-03 -0.141108282217E-03
 -0.154577836883E-03 -0.169324428702E-03 -0.185467580732E-03 -0.203137769410E-03 -0.222477395815E-03
 -0.243641838680E-03 -0.266800595452E-03 -0.292138518119E-03 -0.319857150923E-03 -0.350176177544E-03
 -0.383334985782E-03 -0.419594358220E-03 -0.459238297831E-03 -0.502575997991E-03 -0.549943966799E-03
 -0.601708316146E-03 -0.658267226395E-03 -0.720053598054E-03 -0.787537902221E-03 -0.861231242062E-03
 -0.941688637912E-03 -0.102951254900E-02 -0.112535664503E-02 -0.122992984111E-02 -0.134400060972E-02
 -0.146840158327E-02 -0.160403446101E-02 -0.175187523353E-02 -0.191297973811E-02 -0.208848955715E-02
 -0.227963827166E-02 -0.248775808047E-02 -0.271428679466E-02 -0.296077521518E-02 -0.322889489974E-02
 -0.352044632268E-02 -0.383736742907E-02 -0.418174258072E-02 -0.455581188871E-02 -0.496198092229E-02
 -0.540283077941E-02 -0.588112849889E-02 -0.639983778752E-02 -0.696213002903E-02 -0.757139553378E-02
 -0.823125497951E-02 -0.894557098414E-02 -0.971845974115E-02 -0.105543026368E-01 -0.114577577561E-01
 -0.124337711724E-01 -0.134875878990E-01 -0.146247623699E-01 -0.158511682990E-01 -0.171730077513E-01
 -0.185968192437E-01 -0.201294846736E-01 -0.217782348553E-01 -0.235506534200E-01 -0.254546788089E-01
 -0.274986040548E-01 -0.296910740060E-01 -0.320410795932E-01 -0.345579486849E-01 -0.372513330166E-01
 -0.401311906359E-01 -0.432077632847E-01 -0.464915481639E-01 -0.499932635891E-01 -0.537238081490E-01
 -0.576942130930E-01 -0.619155877865E-01 -0.663990581505E-01 -0.711556980277E-01 -0.761964533852E-01
 -0.815320591659E-01 -0.871729484770E-01 -0.931291537185E-01 -0.994101992567E-01 -0.106024985349E+00
 -0.112981663197E+00 -0.120287501178E+00 -0.127948742467E+00 -0.135970454391E+00 -0.144356370005E+00
 -0.153108722522E+00 -0.162228073450E+00 -0.171713135486E+00 -0.181560591493E+00 -0.191764911166E+00
 -0.202318167267E+00 -0.213209853626E+00 -0.224426707391E+00 -0.235952538288E+00 -0.247768067920E+00
 -0.259850782323E+00 -0.272174801202E+00 -0.284710767337E+00 -0.297425759764E+00 -0.310283234374E+00
 -0.323242995731E+00 -0.336261204083E+00 -0.349290421874E+00 -0.362279704288E+00 -0.375174737924E+00
 -0.387918029693E+00 -0.400449142818E+00 -0.412704966886E+00 -0.424619994765E+00 -0.436126565038E+00
 -0.447155025276E+00 -0.457633792753E+00 -0.467489343881E+00 -0.476646241888E+00 -0.485027375406E+00
 -0.492554561461E+00 -0.499149522528E+00 -0.504735052951E+00 -0.509236113889E+00 -0.512580702254E+00
 -0.514700501379E+00 -0.515531401770E+00 -0.515013967582E+00 -0.513093877689E+00 -0.509722331504E+00
 -0.504856392587E+00 -0.498459243402E+00 -0.490500334015E+00 -0.480955420056E+00 -0.469806494979E+00
 -0.457041628284E+00 -0.442654724392E+00 -0.426645217661E+00 -0.409017718287E+00 -0.389781622076E+00
 -0.368950694929E+00 -0.346542639701E+00 -0.322578650461E+00 -0.297082955094E+00 -0.270082344950E+00
 -0.241605686467E+00 -0.211683408671E+00 -0.180346959047E+00 -0.147628221350E+00 -0.113558890510E+00
 -0.781698028005E-01 -0.414902214685E-01 -0.354707839118E-02  0.356358308475E-01  0.760387084264E-01
  0.117646690632E+00  0.160450879446E+00  0.204449472120E+00  0.249648939968E+00  0.296065122325E+00
  0.343724020762E+00  0.392662088516E+00  0.442925997590E+00  0.494572203693E+00  0.547666912026E+00
  0.602287020153E+00  0.658522255156E+00  0.716478284767E+00  0.776280393658E+00  0.838077386241E+00
  0.902045593158E+00  0.968393024004E+00  0.103736378081E+01  0.110924285652E+01  0.118436143240E+01
  0.126310277842E+01  0.134590887582E+01  0.143328789883E+01  0.152582274231E+01  0.162418080449E+01
  0.172912531017E+01  0.184152850073E+01  0.196238708839E+01  0.000000000000E+00  0.000000000000E+00
  0.000000000000E+00  0.000000000000E+00  0.000000000000E+00  0.000000000000E+00  0.000000000000E+00
  0.000000000000E+00  0.000000000000E+00  0.000000000000E+00  0.000000000000E+00  0.000000000000E+00
  0.000000000000E+00  0.000000000000E+00  0.000000000000E+00  0.000000000000E+00  0.000000000000E+00
  0.000000000000E+00  0.000000000000E+00  0.000000000000E+00  0.000000000000E+00  0.000000000000E+00
  0.000000000000E+00  0.000000000000E+00  0.000000000000E+00  0.000000000000E+00  0.000000000000E+00
  0.000000000000E+00  0.000000000000E+00  0.000000000000E+00  0.000000000000E+00  0.000000000000E+00
  0.000000000000E+00  0.000000000000E+00  0.000000000000E+00  0.000000000000E+00  0.000000000000E+00
  0.000000000000E+00  0.000000000000E+00  0.000000000000E+00  0.000000000000E+00  0.000000000000E+00
  0.000000000000E+00  0.000000000000E+00  0.000000000000E+00  0.000000000000E+00  0.000000000000E+00
  0.000000000000E+00  0.000000000000E+00
 End of Dataset
